C 1.0101681542011665 1.78355045158      
   1.80168586759723     
     4.0000000000000000    4.0000000000000000    0.0000000000000000
     0.0000000000000000    4.0000000000000000    4.0000000000000000
     4.0000000000000000    0.0000000000000000    4.0000000000000000
   C    N 
   126     1
Direct
  0.0000349607599306  0.0000349607599306  0.0000349607599306
  0.0625179134975674  0.0625179134975674  0.0625179134975674
  0.0000255426693398  0.0000255426693398  0.2499674682183071
  0.0624989663038512  0.0624989663038512  0.3125027706266679
  0.0000255426693398  0.2499674682183071  0.0000255426693398
  0.0624989663038512  0.3125027706266679  0.0624989663038512
  0.9998975656436361  0.2500067354730978  0.2500067354730978
  0.0623866775825672  0.3124351159557852  0.3124351159557852
  0.2499674682183071  0.0000255426693398  0.0000255426693398
  0.3125027706266679  0.0624989663038512  0.0624989663038512
  0.2500067354730978  0.9998975656436361  0.2500067354730978
  0.3124351159557852  0.0623866775825672  0.3124351159557852
  0.2500067354730978  0.2500067354730978  0.9998975656436361
  0.3124351159557852  0.3124351159557852  0.0623866775825672
  0.2500770530059426  0.2500770530059426  0.2500770530059426
  0.3123873474261892  0.3123873474261892  0.3123873474261892
  0.0001412820920036  0.0001412820920036  0.4998059416121642
  0.0620862763677841  0.0620862763677841  0.5629718277304888
  0.0000273451145738  0.0000273451145738  0.7500927162855251
  0.0624887093433772  0.0624887093433772  0.8125593248294930
  0.0018219126070322  0.2500014240713764  0.4991741339516068
  0.0625527684235256  0.3124923934811202  0.5626053270730836
  0.0000519729533372  0.2499010282491305  0.7501784942741545
  0.0625225624143077  0.3124648909935401  0.8125716688926246
  0.2500014240713764  0.0018219126070322  0.4991741339516068
  0.3124923934811202  0.0625527684235256  0.5626053270730836
  0.2499010282491305  0.0000519729533372  0.7501784942741545
  0.3124648909935401  0.0625225624143077  0.8125716688926246
  0.2499787597514115  0.2499787597514115  0.5000128845717510
  0.3119409894620789  0.3119409894620789  0.5623710985293662
  0.2498354523563770  0.2498354523563770  0.7499624025736602
  0.3126149005904478  0.3126149005904478  0.8121014697330099
  0.0001412820920036  0.4998059416121642  0.0001412820920036
  0.0620862763677841  0.5629718277304888  0.0620862763677841
  0.0018219126070322  0.4991741339516068  0.2500014240713764
  0.0625527684235256  0.5626053270730836  0.3124923934811202
  0.0000273451145738  0.7500927162855251  0.0000273451145738
  0.0624887093433772  0.8125593248294930  0.0624887093433772
  0.0000519729533372  0.7501784942741545  0.2499010282491305
  0.0625225624143077  0.8125716688926246  0.3124648909935401
  0.2500014240713764  0.4991741339516068  0.0018219126070322
  0.3124923934811202  0.5626053270730836  0.0625527684235256
  0.2499787597514115  0.5000128845717510  0.2499787597514115
  0.3119409894620789  0.5623710985293662  0.3119409894620789
  0.2499010282491305  0.7501784942741545  0.0000519729533372
  0.3124648909935401  0.8125716688926246  0.0625225624143077
  0.2498354523563770  0.7499624025736602  0.2498354523563770
  0.3126149005904478  0.8121014697330099  0.3126149005904478
  0.0023456315099379  0.4996581230983627  0.4996581230983627
  0.0621503526520290  0.5625820602381364  0.5625820602381364
  0.0003350271772359  0.4998965333810414  0.7499765099869082
  0.0635220021852471  0.5625589277096466  0.8116519571438094
  0.0003350271772359  0.7499765099869082  0.4998965333810414
  0.0635220021852471  0.8116519571438094  0.5625589277096466
  0.0005773649459155  0.7497918868626799  0.7497918868626799
  0.0629390437355713  0.8122604762085959  0.8122604762085959
  0.2487007206592823  0.4994949449427785  0.4994949449427785
  0.3150903890951171  0.5588738409928899  0.5588738409928899
  0.2528606907789896  0.4988950971684498  0.7478548836591093
  0.3155913086975132  0.5630271067468537  0.8086677453024009
  0.2528606907789896  0.7478548836591093  0.4988950971684498
  0.3155913086975132  0.8086677453024009  0.5630271067468537
  0.2510290589050299  0.7498011816936099  0.7498011816936099
  0.3127084352360708  0.8124977885115101  0.8124977885115101
  0.4998059416121642  0.0001412820920036  0.0001412820920036
  0.5629718277304888  0.0620862763677841  0.0620862763677841
  0.4991741339516068  0.0018219126070322  0.2500014240713764
  0.5626053270730836  0.0625527684235256  0.3124923934811202
  0.4991741339516068  0.2500014240713764  0.0018219126070322
  0.5626053270730836  0.3124923934811202  0.0625527684235256
  0.5000128845717510  0.2499787597514115  0.2499787597514115
  0.5623710985293662  0.3119409894620789  0.3119409894620789
  0.7500927162855251  0.0000273451145738  0.0000273451145738
  0.8125593248294930  0.0624887093433772  0.0624887093433772
  0.7501784942741545  0.0000519729533372  0.2499010282491305
  0.8125716688926246  0.0625225624143077  0.3124648909935401
  0.7501784942741545  0.2499010282491305  0.0000519729533372
  0.8125716688926246  0.3124648909935401  0.0625225624143077
  0.7499624025736602  0.2498354523563770  0.2498354523563770
  0.8121014697330099  0.3126149005904478  0.3126149005904478
  0.4996581230983627  0.0023456315099379  0.4996581230983627
  0.5625820602381364  0.0621503526520290  0.5625820602381364
  0.4998965333810414  0.0003350271772359  0.7499765099869082
  0.5625589277096466  0.0635220021852471  0.8116519571438094
  0.4994949449427785  0.2487007206592823  0.4994949449427785
  0.5588738409928899  0.3150903890951171  0.5588738409928899
  0.4988950971684498  0.2528606907789896  0.7478548836591093
  0.5630271067468537  0.3155913086975132  0.8086677453024009
  0.7499765099869082  0.0003350271772359  0.4998965333810414
  0.8116519571438094  0.0635220021852471  0.5625589277096466
  0.7497918868626799  0.0005773649459155  0.7497918868626799
  0.8122604762085959  0.0629390437355713  0.8122604762085959
  0.7478548836591093  0.2528606907789896  0.4988950971684498
  0.8086677453024009  0.3155913086975132  0.5630271067468537
  0.7498011816936099  0.2510290589050299  0.7498011816936099
  0.8124977885115101  0.3127084352360708  0.8124977885115101
  0.4996581230983627  0.4996581230983627  0.0023456315099379
  0.5625820602381364  0.5625820602381364  0.0621503526520290
  0.4994949449427785  0.4994949449427785  0.2487007206592823
  0.5588738409928899  0.5588738409928899  0.3150903890951171
  0.4998965333810414  0.7499765099869082  0.0003350271772359
  0.5625589277096466  0.8116519571438094  0.0635220021852471
  0.4988950971684498  0.7478548836591093  0.2528606907789896
  0.5630271067468537  0.8086677453024009  0.3155913086975132
  0.7499765099869082  0.4998965333810414  0.0003350271772359
  0.8116519571438094  0.5625589277096466  0.0635220021852471
  0.7478548836591093  0.4988950971684498  0.2528606907789896
  0.8086677453024009  0.5630271067468537  0.3155913086975132
  0.7497918868626799  0.7497918868626799  0.0005773649459155
  0.8122604762085959  0.8122604762085959  0.0629390437355713
  0.7498011816936099  0.7498011816936099  0.2510290589050299
  0.8124977885115101  0.8124977885115101  0.3127084352360708
  0.4954457183214297  0.4954457183214297  0.7687167990305528
  0.5628056813355172  0.5628056813355172  0.8121582456809304
  0.4954457183214297  0.7687167990305528  0.4954457183214297
  0.5628056813355172  0.8121582456809304  0.5628056813355172
  0.4995818116623823  0.7504609472910656  0.7504609472910656
  0.5626392739541913  0.8126903137723617  0.8126903137723617
  0.7687167990305528  0.4954457183214297  0.4954457183214297
  0.8121582456809304  0.5628056813355172  0.5628056813355172
  0.7504609472910656  0.4995818116623823  0.7504609472910656
  0.8126903137723617  0.5626392739541913  0.8126903137723617
  0.7504609472910656  0.7504609472910656  0.4995818116623823
  0.8126903137723617  0.8126903137723617  0.5626392739541913
  0.7501106809741139  0.7501106809741139  0.7501106809741139
  0.8125728264722025  0.8125728264722025  0.8125728264722025
  0.4932911307181656  0.4932911307181656  0.4932911307181656
 
  0.00000000E+00  0.00000000E+00  0.00000000E+00
  0.00000000E+00  0.00000000E+00  0.00000000E+00
  0.00000000E+00  0.00000000E+00  0.00000000E+00
  0.00000000E+00  0.00000000E+00  0.00000000E+00
  0.00000000E+00  0.00000000E+00  0.00000000E+00
  0.00000000E+00  0.00000000E+00  0.00000000E+00
  0.00000000E+00  0.00000000E+00  0.00000000E+00
  0.00000000E+00  0.00000000E+00  0.00000000E+00
  0.00000000E+00  0.00000000E+00  0.00000000E+00
  0.00000000E+00  0.00000000E+00  0.00000000E+00
  0.00000000E+00  0.00000000E+00  0.00000000E+00
  0.00000000E+00  0.00000000E+00  0.00000000E+00
  0.00000000E+00  0.00000000E+00  0.00000000E+00
  0.00000000E+00  0.00000000E+00  0.00000000E+00
  0.00000000E+00  0.00000000E+00  0.00000000E+00
  0.00000000E+00  0.00000000E+00  0.00000000E+00
  0.00000000E+00  0.00000000E+00  0.00000000E+00
  0.00000000E+00  0.00000000E+00  0.00000000E+00
  0.00000000E+00  0.00000000E+00  0.00000000E+00
  0.00000000E+00  0.00000000E+00  0.00000000E+00
  0.00000000E+00  0.00000000E+00  0.00000000E+00
  0.00000000E+00  0.00000000E+00  0.00000000E+00
  0.00000000E+00  0.00000000E+00  0.00000000E+00
  0.00000000E+00  0.00000000E+00  0.00000000E+00
  0.00000000E+00  0.00000000E+00  0.00000000E+00
  0.00000000E+00  0.00000000E+00  0.00000000E+00
  0.00000000E+00  0.00000000E+00  0.00000000E+00
  0.00000000E+00  0.00000000E+00  0.00000000E+00
  0.00000000E+00  0.00000000E+00  0.00000000E+00
  0.00000000E+00  0.00000000E+00  0.00000000E+00
  0.00000000E+00  0.00000000E+00  0.00000000E+00
  0.00000000E+00  0.00000000E+00  0.00000000E+00
  0.00000000E+00  0.00000000E+00  0.00000000E+00
  0.00000000E+00  0.00000000E+00  0.00000000E+00
  0.00000000E+00  0.00000000E+00  0.00000000E+00
  0.00000000E+00  0.00000000E+00  0.00000000E+00
  0.00000000E+00  0.00000000E+00  0.00000000E+00
  0.00000000E+00  0.00000000E+00  0.00000000E+00
  0.00000000E+00  0.00000000E+00  0.00000000E+00
  0.00000000E+00  0.00000000E+00  0.00000000E+00
  0.00000000E+00  0.00000000E+00  0.00000000E+00
  0.00000000E+00  0.00000000E+00  0.00000000E+00
  0.00000000E+00  0.00000000E+00  0.00000000E+00
  0.00000000E+00  0.00000000E+00  0.00000000E+00
  0.00000000E+00  0.00000000E+00  0.00000000E+00
  0.00000000E+00  0.00000000E+00  0.00000000E+00
  0.00000000E+00  0.00000000E+00  0.00000000E+00
  0.00000000E+00  0.00000000E+00  0.00000000E+00
  0.00000000E+00  0.00000000E+00  0.00000000E+00
  0.00000000E+00  0.00000000E+00  0.00000000E+00
  0.00000000E+00  0.00000000E+00  0.00000000E+00
  0.00000000E+00  0.00000000E+00  0.00000000E+00
  0.00000000E+00  0.00000000E+00  0.00000000E+00
  0.00000000E+00  0.00000000E+00  0.00000000E+00
  0.00000000E+00  0.00000000E+00  0.00000000E+00
  0.00000000E+00  0.00000000E+00  0.00000000E+00
  0.00000000E+00  0.00000000E+00  0.00000000E+00
  0.00000000E+00  0.00000000E+00  0.00000000E+00
  0.00000000E+00  0.00000000E+00  0.00000000E+00
  0.00000000E+00  0.00000000E+00  0.00000000E+00
  0.00000000E+00  0.00000000E+00  0.00000000E+00
  0.00000000E+00  0.00000000E+00  0.00000000E+00
  0.00000000E+00  0.00000000E+00  0.00000000E+00
  0.00000000E+00  0.00000000E+00  0.00000000E+00
  0.00000000E+00  0.00000000E+00  0.00000000E+00
  0.00000000E+00  0.00000000E+00  0.00000000E+00
  0.00000000E+00  0.00000000E+00  0.00000000E+00
  0.00000000E+00  0.00000000E+00  0.00000000E+00
  0.00000000E+00  0.00000000E+00  0.00000000E+00
  0.00000000E+00  0.00000000E+00  0.00000000E+00
  0.00000000E+00  0.00000000E+00  0.00000000E+00
  0.00000000E+00  0.00000000E+00  0.00000000E+00
  0.00000000E+00  0.00000000E+00  0.00000000E+00
  0.00000000E+00  0.00000000E+00  0.00000000E+00
  0.00000000E+00  0.00000000E+00  0.00000000E+00
  0.00000000E+00  0.00000000E+00  0.00000000E+00
  0.00000000E+00  0.00000000E+00  0.00000000E+00
  0.00000000E+00  0.00000000E+00  0.00000000E+00
  0.00000000E+00  0.00000000E+00  0.00000000E+00
  0.00000000E+00  0.00000000E+00  0.00000000E+00
  0.00000000E+00  0.00000000E+00  0.00000000E+00
  0.00000000E+00  0.00000000E+00  0.00000000E+00
  0.00000000E+00  0.00000000E+00  0.00000000E+00
  0.00000000E+00  0.00000000E+00  0.00000000E+00
  0.00000000E+00  0.00000000E+00  0.00000000E+00
  0.00000000E+00  0.00000000E+00  0.00000000E+00
  0.00000000E+00  0.00000000E+00  0.00000000E+00
  0.00000000E+00  0.00000000E+00  0.00000000E+00
  0.00000000E+00  0.00000000E+00  0.00000000E+00
  0.00000000E+00  0.00000000E+00  0.00000000E+00
  0.00000000E+00  0.00000000E+00  0.00000000E+00
  0.00000000E+00  0.00000000E+00  0.00000000E+00
  0.00000000E+00  0.00000000E+00  0.00000000E+00
  0.00000000E+00  0.00000000E+00  0.00000000E+00
  0.00000000E+00  0.00000000E+00  0.00000000E+00
  0.00000000E+00  0.00000000E+00  0.00000000E+00
  0.00000000E+00  0.00000000E+00  0.00000000E+00
  0.00000000E+00  0.00000000E+00  0.00000000E+00
  0.00000000E+00  0.00000000E+00  0.00000000E+00
  0.00000000E+00  0.00000000E+00  0.00000000E+00
  0.00000000E+00  0.00000000E+00  0.00000000E+00
  0.00000000E+00  0.00000000E+00  0.00000000E+00
  0.00000000E+00  0.00000000E+00  0.00000000E+00
  0.00000000E+00  0.00000000E+00  0.00000000E+00
  0.00000000E+00  0.00000000E+00  0.00000000E+00
  0.00000000E+00  0.00000000E+00  0.00000000E+00
  0.00000000E+00  0.00000000E+00  0.00000000E+00
  0.00000000E+00  0.00000000E+00  0.00000000E+00
  0.00000000E+00  0.00000000E+00  0.00000000E+00
  0.00000000E+00  0.00000000E+00  0.00000000E+00
  0.00000000E+00  0.00000000E+00  0.00000000E+00
  0.00000000E+00  0.00000000E+00  0.00000000E+00
  0.00000000E+00  0.00000000E+00  0.00000000E+00
  0.00000000E+00  0.00000000E+00  0.00000000E+00
  0.00000000E+00  0.00000000E+00  0.00000000E+00
  0.00000000E+00  0.00000000E+00  0.00000000E+00
  0.00000000E+00  0.00000000E+00  0.00000000E+00
  0.00000000E+00  0.00000000E+00  0.00000000E+00
  0.00000000E+00  0.00000000E+00  0.00000000E+00
  0.00000000E+00  0.00000000E+00  0.00000000E+00
  0.00000000E+00  0.00000000E+00  0.00000000E+00
  0.00000000E+00  0.00000000E+00  0.00000000E+00
  0.00000000E+00  0.00000000E+00  0.00000000E+00
  0.00000000E+00  0.00000000E+00  0.00000000E+00
  0.00000000E+00  0.00000000E+00  0.00000000E+00
  0.00000000E+00  0.00000000E+00  0.00000000E+00
  0.00000000E+00  0.00000000E+00  0.00000000E+00
