Cubic diamond                           
   1.00000000000000     
    10.6329861250000004    0.0000000000000000    0.0000000000000000
     0.0000000000000000   10.6329861250000004    0.0000000000000000
     0.0000000000000000    0.0000000000000000   10.6329861250000004
   C    N 
   214     1
Direct
 -0.0001017618888071 -0.0001623238371341  0.0001623238371341
 -0.0000509715910338 -0.0002624448251771  0.3333532695798407
 -0.0001514337184936 -0.0004341828267662  0.6668041981075642
 -0.0001514337184936  0.3331958318924383  0.0004341828267662
 -0.0000381476251340  0.3325753105828338  0.3335995775672910
 -0.0009713404896206  0.3329415398863083  0.6670584901136939
 -0.0000509715910338  0.6666467604201616  0.0002624448251771
  0.0006382435278408  0.6663581454651555  0.3336418845348471
 -0.0000381476251340  0.6664004524327114  0.6674247194171686
  0.3333354709929661 -0.0001561079415657  0.0001561079415657
  0.3333740929658343  0.0002886900946052  0.3334679802829703
  0.3332222860218571 -0.0002525731512995  0.6666698573085905
  0.3332222860218571  0.3333301726914118  0.0002525731512995
  0.3330957807932262  0.3356582654990528  0.3347957548850553
  0.3357934622803467  0.3260020538873743  0.6739979761126283
  0.3333740929658343  0.6665320497170324 -0.0002886900946052
  0.3343255666891300  0.6682569481982558  0.3317430818017467
  0.3330957807932262  0.6652042751149474  0.6643417645009497
  0.6666296545768722 -0.0000235333750721  0.0000235333750721
  0.6666658686912639  0.0003270122775481  0.3332909465811496
  0.6664344554742502  0.0000470952545213  0.6667849503384170
  0.6664344554742502  0.3332150796615855 -0.0000470952545213
  0.6665296942693278  0.3337428418007850  0.3333194222169827
  0.6662841347453292  0.3334851533047715  0.6665148766952308
  0.6666658686912639  0.6667090834188535 -0.0003270122775481
  0.6673747677920976  0.6671028192992341  0.3328972107007684
  0.6665296942693278  0.6666806077830200  0.6662571881992173
  0.0832618888474159  0.0832379323566227  0.0836211573977972
  0.0832421138936061  0.0832597623062762  0.4170292055854463
  0.0830170399946450  0.0828783564793936  0.7503162960053575
  0.0834002215232147  0.4165937032784235  0.0836882655777034
  0.0857601368867840  0.4174214692506512  0.4196743899859435
  0.0832060278851129  0.4154326778368052  0.7501273081148898
  0.0834493825631702  0.7498339979104024  0.0834382249585997
  0.0843226207094379  0.7490681166280809  0.4167631047410688
  0.0834934677230163  0.7495204952179657  0.7498398682769862
  0.4166147305262649  0.0835762104105172  0.0835809241545779
  0.4164678833693587  0.0838041501361457  0.4168654306306421
  0.4163041084145545  0.0832597623062762  0.7500912221063960
  0.4166753966473426  0.4167784772180154  0.0832588615231559
  0.4172908672156028  0.4213075760528941  0.4160424467843980
  0.4136589240140573  0.4174214692506512  0.7475731991132185
  0.4168556745144876  0.7502204528051462  0.0828623074061132
  0.4174383222200045  0.7510438913008805  0.4158949917799962
  0.4165702092589320  0.7490681166280809  0.7490107152905645
  0.7499141194467734  0.0833717887873648  0.0834192165532292
  0.7497524118454246  0.0835762104105172  0.4167185834737359
  0.7497121786022054  0.0832379323566227  0.7500714471525867
  0.7500763940506029  0.4167977795611772  0.0832569419493995
  0.7500744744768467  0.4167784772180154  0.4166579173526582
  0.7496450704222989  0.4165937032784235  0.7499331144767880
  0.7501468015671076  0.7500396491626533  0.0831865344328951
  0.7504710285938893  0.7502204528051462  0.4164776394855132
  0.7498951110414027  0.7498339979104024  0.7498839534368325
  0.1665291608924367  0.1665152382815044  0.0004341828267662
  0.1659086395828323  0.1666285243748641  0.3335995775672910
  0.1662748688863069  0.1656953315103774  0.6670584901136939
  0.1666635016914102  0.4998889430218574  0.0002525731512995
  0.1689915944990512  0.4997624377932265  0.3347957548850553
  0.1593353828873727  0.5024601192803471  0.6739979761126283
  0.1665484086615840  0.8331010814742444 -0.0000470952545213
  0.1670761708007837  0.8331963202693221  0.3333194222169827
  0.1668184823047699  0.8329507607453235  0.6665148766952308
  0.4999800734201588  0.1666157004089643  0.0002624448251771
  0.4996914584651526  0.1673049155278389  0.3336418845348471
  0.4997337654327085  0.1666285243748641  0.6674247194171686
  0.4998653627170293  0.5000407499658346 -0.0002886900946052
  0.5015902611982529  0.5009922236891301  0.3317430818017467
  0.4985375881149444  0.4997624377932265  0.6643417645009497
  0.5000423964188504  0.8333324946912581 -0.0003270122775481
  0.5004361322992312  0.8340413937920919  0.3328972107007684
  0.5000139207830171  0.8331963202693221  0.6662571881992173
  0.8331709891628630  0.1665649101111909  0.0001623238371341
  0.8330708681748201  0.1666157004089643  0.3333532695798407
  0.8328991301732309  0.1665152382815044  0.6668041981075642
  0.8331772050584314  0.5000021279929663  0.0001561079415657
  0.8336220030946027  0.5000407499658346  0.3334679802829703
  0.8330807398486978  0.4998889430218574  0.6666698573085905
  0.8333097796249253  0.8332962805768664  0.0000235333750721
  0.8336603252775453  0.8333324946912581  0.3332909465811496
  0.8333804082545184  0.8331010814742444  0.6667849503384170
  0.1665484086615840  0.0000470952545213  0.1668989035257505
  0.1666635016914102 -0.0002525731512995  0.5001110569781421
  0.1665291608924367 -0.0004341828267662  0.8334847467184908
  0.1668184823047699  0.3334851533047715  0.1670492242546716
  0.1593353828873727  0.3260020538873743  0.4975398807196529
  0.1662748688863069  0.3329415398863083  0.8343046534896177
  0.1670761708007837  0.6666806077830200  0.1668036647306731
  0.1689915944990512  0.6652042751149474  0.5002375622067736
  0.1659086395828323  0.6664004524327114  0.8333714606251311
  0.5000423964188504  0.0003270122775481  0.1666674903087370
  0.4998653627170293  0.0002886900946052  0.4999592500341649
  0.4999800734201588 -0.0002624448251771  0.8333842845910308
  0.5000139207830171  0.3337428418007850  0.1668036647306731
  0.4985375881149444  0.3356582654990528  0.5002375622067736
  0.4997337654327085  0.3325753105828338  0.8333714606251311
  0.5004361322992312  0.6671028192992341  0.1659585912079036
  0.5015902611982529  0.6682569481982558  0.4990077763108697
  0.4996914584651526  0.6663581454651555  0.8326950694721562
  0.8333097796249253 -0.0000235333750721  0.1667037044231290
  0.8331772050584314 -0.0001561079415657  0.4999978720070336
  0.8331709891628630 -0.0001623238371341  0.8334350748888043
  0.8333804082545184  0.3332150796615855  0.1668989035257505
  0.8330807398486978  0.3333301726914118  0.5001110569781421
  0.8328991301732309  0.3331958318924383  0.8334847467184908
  0.8336603252775453  0.6667090834188535  0.1666674903087370
  0.8336220030946027  0.6665320497170324  0.4999592500341649
  0.8330708681748201  0.6666467604201616  0.8333842845910308
 -0.0001471803068507  0.1665194916931474  0.1668642346823237
 -0.0012924418056580  0.1653742301943401  0.4998006675295510
 -0.0002829588084482  0.1663837131915499  0.8336162718084456
  0.0005941810167946  0.4999230655355645  0.1672721460231874
  0.0001423115256115  0.4994778529586564  0.5005221470413436
 -0.0012924418056580  0.5001993324704488  0.8346257548056549
  0.0001323296115240  0.8332266150630026  0.1667733699369929
  0.0005941810167946  0.8327278389768078  0.5000769344644354
 -0.0001471803068507  0.8331357503176716  0.8334804933068480
  0.3332564085355642  0.1672608530167927  0.1672721460231874
  0.3328111959586560  0.1668089835256095  0.5005221470413436
  0.3335326754704486  0.1653742301943401  0.8346257548056549
  0.3336420706529415  0.5003087276529418  0.1664977223200102
  0.3328111959586560  0.4994778529586564  0.8331910014743857
  0.3335662516291273  0.8337563004612659  0.1662436845387294
  0.3336420706529415  0.8335022626799851  0.4996912723470581
  0.3332564085355642  0.8327278389768078  0.8327391319832025
  0.6665599890630083  0.1667990016115221  0.1667733699369929
  0.6660612129768135  0.1672608530167927  0.5000769344644354
  0.6664691243176774  0.1665194916931474  0.8334804933068480
  0.6670896744612717  0.5002329086291277  0.1662436845387294
  0.6668356366799908  0.5003087276529418  0.4996912723470581
  0.6660612129768135  0.4999230655355645  0.8327391319832025
  0.6668594181654998  0.8335260441654940  0.1664739408345010
  0.6670896744612717  0.8337563004612659  0.4997670913708723
  0.6665599890630083  0.8332266150630026  0.8332009833884731
  0.2499270462784231  0.2500668855232121  0.0836882655777034
  0.2507548122506508  0.2524268008867814  0.4196743899859435
  0.2487660208368049  0.2498726918851104  0.7501273081148898
  0.2501118202180150  0.5833420526473391  0.0832588615231559
  0.2546409190528937  0.5839575232155994  0.4160424467843980
  0.2507548122506508  0.5803255800140542  0.7475731991132185
  0.2501311225611768  0.9167430810506058  0.0832569419493995
  0.2501118202180150  0.9167411614768496  0.4166579173526582
  0.2499270462784231  0.9163117574223018  0.7499331144767880
  0.5831673109103995  0.2501160465631677  0.0834382249585997
  0.5824014296280781  0.2509892847094354  0.4167631047410688
  0.5828538082179628  0.2501601317230138  0.7498398682769862
  0.5835537658051433  0.5835223305144844  0.0828623074061132
  0.5843772043008776  0.5841049782200017  0.4158949917799962
  0.5824014296280781  0.5832368652589288  0.7490107152905645
  0.5833729621626504  0.9168134885671104  0.0831865344328951
  0.5835537658051433  0.9171377155938921  0.4164776394855132
  0.5831673109103995  0.9165617980414056  0.7498839534368325
  0.9165712833566231  0.2499285528474133  0.0836211573977972
  0.9165931133062765  0.2499087778936036  0.4170292055854463
  0.9162117074793942  0.2496837039946424  0.7503162960053575
  0.9169095614105175  0.5832813865262618  0.0835809241545779
  0.9171375011361460  0.5831345393693558  0.4168654306306421
  0.9165931133062765  0.5829707644145513  0.7500912221063960
  0.9167051397873649  0.9165808064467763  0.0834192165532292
  0.9169095614105175  0.9164190988454275  0.4167185834737359
  0.9165712833566231  0.9163788656022083  0.7500714471525867
  0.2502541254088448  0.0837457018749669  0.2505021750180850
  0.2497391270737697  0.0832052460935618  0.5835941859262275
  0.2496533635184609  0.0829069392942600  0.9170930837057456
  0.2503086541474148  0.4169753111474152  0.2503073470689031
  0.2497391270737697  0.4164057840737702  0.9167947769064438
  0.2504451378577430  0.7506815882428903  0.2493184117571098
  0.2503086541474148  0.7496926529310970  0.5830246588525821
  0.2502541254088448  0.7494978249819148  0.9162543211250386
  0.5832423232108453  0.0837257740650538  0.2500909897891517
  0.5828311379819119  0.0837457018749669  0.5830791875911522
  0.5831348322889752  0.0833264093870540  0.9166736136129514
  0.5840149012428875  0.4171117948577434  0.2493184117571098
  0.5830259659310941  0.4169753111474152  0.5830246588525821
  0.5828311379819119  0.4169207824088452  0.9162543211250386
  0.5837260892130104  0.7503927762130133  0.2496072237869866
  0.5840149012428875  0.7506815882428903  0.5828881751422542
  0.5832423232108453  0.7499090102108482  0.9162742489349516
  0.9166597603870543  0.0833264093870540  0.2501984807110217
  0.9162402902942601  0.0829069392942600  0.5836799494815362
  0.9164760819138372  0.0831427309138370  0.9168572920861685
  0.9170790528749672  0.4169207824088452  0.2505021750180850
  0.9165385970935619  0.4164057840737702  0.5835941859262275
  0.9162402902942601  0.4163200205184612  0.9170930837057456
  0.9170591250650542  0.7499090102108482  0.2500909897891517
  0.9170790528749672  0.7494978249819148  0.5830791875911522
  0.9166597603870543  0.7498015192889781  0.9166736136129514
  0.0834934677230163  0.2501601317230138  0.2504795047820342
  0.0832060278851129  0.2498726918851104  0.5845672921631921
  0.0830170399946450  0.2496837039946424  0.9171216665206116
  0.0843226207094379  0.5832368652589288  0.2509318833719194
  0.0857601368867840  0.5803255800140542  0.5825785007493464
  0.0832421138936061  0.5829707644145513  0.9167402606937293
  0.0834493825631702  0.9165617980414056  0.2501660020895976
  0.0834002215232147  0.9163117574223018  0.5834062667215739
  0.0832618888474159  0.9163788656022083  0.9167620906433827
  0.4165702092589320  0.2509892847094354  0.2509318833719194
  0.4136589240140573  0.2524268008867814  0.5825785007493464
  0.4163041084145545  0.2499087778936036  0.9167402606937293
  0.4174383222200045  0.5841049782200017  0.2489561086991195
  0.4172908672156028  0.5839575232155994  0.5786923939471035
  0.4164678833693587  0.5831345393693558  0.9161958728638597
  0.4168556745144876  0.9171377155938921  0.2497795471948538
  0.4166753966473426  0.9167411614768496  0.5832214927819819
  0.4166147305262649  0.9164190988454275  0.9164238125894882
  0.7498951110414027  0.2501160465631677  0.2501660020895976
  0.7496450704222989  0.2500668855232121  0.5834062667215739
  0.7497121786022054  0.2499285528474133  0.9167620906433827
  0.7504710285938893  0.5835223305144844  0.2497795471948538
  0.7500744744768467  0.5833420526473391  0.5832214927819819
  0.7497524118454246  0.5832813865262618  0.9164238125894882
  0.7501468015671076  0.9168134885671104  0.2499603508373466
  0.7500763940506029  0.9167430810506058  0.5832021904388202
  0.7499141194467734  0.9165808064467763  0.9166282342126408
  0.3408986275678006  0.5075652845678013  0.4924347154321990
 
  0.00000000E+00  0.00000000E+00  0.00000000E+00
  0.00000000E+00  0.00000000E+00  0.00000000E+00
  0.00000000E+00  0.00000000E+00  0.00000000E+00
  0.00000000E+00  0.00000000E+00  0.00000000E+00
  0.00000000E+00  0.00000000E+00  0.00000000E+00
  0.00000000E+00  0.00000000E+00  0.00000000E+00
  0.00000000E+00  0.00000000E+00  0.00000000E+00
  0.00000000E+00  0.00000000E+00  0.00000000E+00
  0.00000000E+00  0.00000000E+00  0.00000000E+00
  0.00000000E+00  0.00000000E+00  0.00000000E+00
  0.00000000E+00  0.00000000E+00  0.00000000E+00
  0.00000000E+00  0.00000000E+00  0.00000000E+00
  0.00000000E+00  0.00000000E+00  0.00000000E+00
  0.00000000E+00  0.00000000E+00  0.00000000E+00
  0.00000000E+00  0.00000000E+00  0.00000000E+00
  0.00000000E+00  0.00000000E+00  0.00000000E+00
  0.00000000E+00  0.00000000E+00  0.00000000E+00
  0.00000000E+00  0.00000000E+00  0.00000000E+00
  0.00000000E+00  0.00000000E+00  0.00000000E+00
  0.00000000E+00  0.00000000E+00  0.00000000E+00
  0.00000000E+00  0.00000000E+00  0.00000000E+00
  0.00000000E+00  0.00000000E+00  0.00000000E+00
  0.00000000E+00  0.00000000E+00  0.00000000E+00
  0.00000000E+00  0.00000000E+00  0.00000000E+00
  0.00000000E+00  0.00000000E+00  0.00000000E+00
  0.00000000E+00  0.00000000E+00  0.00000000E+00
  0.00000000E+00  0.00000000E+00  0.00000000E+00
  0.00000000E+00  0.00000000E+00  0.00000000E+00
  0.00000000E+00  0.00000000E+00  0.00000000E+00
  0.00000000E+00  0.00000000E+00  0.00000000E+00
  0.00000000E+00  0.00000000E+00  0.00000000E+00
  0.00000000E+00  0.00000000E+00  0.00000000E+00
  0.00000000E+00  0.00000000E+00  0.00000000E+00
  0.00000000E+00  0.00000000E+00  0.00000000E+00
  0.00000000E+00  0.00000000E+00  0.00000000E+00
  0.00000000E+00  0.00000000E+00  0.00000000E+00
  0.00000000E+00  0.00000000E+00  0.00000000E+00
  0.00000000E+00  0.00000000E+00  0.00000000E+00
  0.00000000E+00  0.00000000E+00  0.00000000E+00
  0.00000000E+00  0.00000000E+00  0.00000000E+00
  0.00000000E+00  0.00000000E+00  0.00000000E+00
  0.00000000E+00  0.00000000E+00  0.00000000E+00
  0.00000000E+00  0.00000000E+00  0.00000000E+00
  0.00000000E+00  0.00000000E+00  0.00000000E+00
  0.00000000E+00  0.00000000E+00  0.00000000E+00
  0.00000000E+00  0.00000000E+00  0.00000000E+00
  0.00000000E+00  0.00000000E+00  0.00000000E+00
  0.00000000E+00  0.00000000E+00  0.00000000E+00
  0.00000000E+00  0.00000000E+00  0.00000000E+00
  0.00000000E+00  0.00000000E+00  0.00000000E+00
  0.00000000E+00  0.00000000E+00  0.00000000E+00
  0.00000000E+00  0.00000000E+00  0.00000000E+00
  0.00000000E+00  0.00000000E+00  0.00000000E+00
  0.00000000E+00  0.00000000E+00  0.00000000E+00
  0.00000000E+00  0.00000000E+00  0.00000000E+00
  0.00000000E+00  0.00000000E+00  0.00000000E+00
  0.00000000E+00  0.00000000E+00  0.00000000E+00
  0.00000000E+00  0.00000000E+00  0.00000000E+00
  0.00000000E+00  0.00000000E+00  0.00000000E+00
  0.00000000E+00  0.00000000E+00  0.00000000E+00
  0.00000000E+00  0.00000000E+00  0.00000000E+00
  0.00000000E+00  0.00000000E+00  0.00000000E+00
  0.00000000E+00  0.00000000E+00  0.00000000E+00
  0.00000000E+00  0.00000000E+00  0.00000000E+00
  0.00000000E+00  0.00000000E+00  0.00000000E+00
  0.00000000E+00  0.00000000E+00  0.00000000E+00
  0.00000000E+00  0.00000000E+00  0.00000000E+00
  0.00000000E+00  0.00000000E+00  0.00000000E+00
  0.00000000E+00  0.00000000E+00  0.00000000E+00
  0.00000000E+00  0.00000000E+00  0.00000000E+00
  0.00000000E+00  0.00000000E+00  0.00000000E+00
  0.00000000E+00  0.00000000E+00  0.00000000E+00
  0.00000000E+00  0.00000000E+00  0.00000000E+00
  0.00000000E+00  0.00000000E+00  0.00000000E+00
  0.00000000E+00  0.00000000E+00  0.00000000E+00
  0.00000000E+00  0.00000000E+00  0.00000000E+00
  0.00000000E+00  0.00000000E+00  0.00000000E+00
  0.00000000E+00  0.00000000E+00  0.00000000E+00
  0.00000000E+00  0.00000000E+00  0.00000000E+00
  0.00000000E+00  0.00000000E+00  0.00000000E+00
  0.00000000E+00  0.00000000E+00  0.00000000E+00
  0.00000000E+00  0.00000000E+00  0.00000000E+00
  0.00000000E+00  0.00000000E+00  0.00000000E+00
  0.00000000E+00  0.00000000E+00  0.00000000E+00
  0.00000000E+00  0.00000000E+00  0.00000000E+00
  0.00000000E+00  0.00000000E+00  0.00000000E+00
  0.00000000E+00  0.00000000E+00  0.00000000E+00
  0.00000000E+00  0.00000000E+00  0.00000000E+00
  0.00000000E+00  0.00000000E+00  0.00000000E+00
  0.00000000E+00  0.00000000E+00  0.00000000E+00
  0.00000000E+00  0.00000000E+00  0.00000000E+00
  0.00000000E+00  0.00000000E+00  0.00000000E+00
  0.00000000E+00  0.00000000E+00  0.00000000E+00
  0.00000000E+00  0.00000000E+00  0.00000000E+00
  0.00000000E+00  0.00000000E+00  0.00000000E+00
  0.00000000E+00  0.00000000E+00  0.00000000E+00
  0.00000000E+00  0.00000000E+00  0.00000000E+00
  0.00000000E+00  0.00000000E+00  0.00000000E+00
  0.00000000E+00  0.00000000E+00  0.00000000E+00
  0.00000000E+00  0.00000000E+00  0.00000000E+00
  0.00000000E+00  0.00000000E+00  0.00000000E+00
  0.00000000E+00  0.00000000E+00  0.00000000E+00
  0.00000000E+00  0.00000000E+00  0.00000000E+00
  0.00000000E+00  0.00000000E+00  0.00000000E+00
  0.00000000E+00  0.00000000E+00  0.00000000E+00
  0.00000000E+00  0.00000000E+00  0.00000000E+00
  0.00000000E+00  0.00000000E+00  0.00000000E+00
  0.00000000E+00  0.00000000E+00  0.00000000E+00
  0.00000000E+00  0.00000000E+00  0.00000000E+00
  0.00000000E+00  0.00000000E+00  0.00000000E+00
  0.00000000E+00  0.00000000E+00  0.00000000E+00
  0.00000000E+00  0.00000000E+00  0.00000000E+00
  0.00000000E+00  0.00000000E+00  0.00000000E+00
  0.00000000E+00  0.00000000E+00  0.00000000E+00
  0.00000000E+00  0.00000000E+00  0.00000000E+00
  0.00000000E+00  0.00000000E+00  0.00000000E+00
  0.00000000E+00  0.00000000E+00  0.00000000E+00
  0.00000000E+00  0.00000000E+00  0.00000000E+00
  0.00000000E+00  0.00000000E+00  0.00000000E+00
  0.00000000E+00  0.00000000E+00  0.00000000E+00
  0.00000000E+00  0.00000000E+00  0.00000000E+00
  0.00000000E+00  0.00000000E+00  0.00000000E+00
  0.00000000E+00  0.00000000E+00  0.00000000E+00
  0.00000000E+00  0.00000000E+00  0.00000000E+00
  0.00000000E+00  0.00000000E+00  0.00000000E+00
  0.00000000E+00  0.00000000E+00  0.00000000E+00
  0.00000000E+00  0.00000000E+00  0.00000000E+00
  0.00000000E+00  0.00000000E+00  0.00000000E+00
  0.00000000E+00  0.00000000E+00  0.00000000E+00
  0.00000000E+00  0.00000000E+00  0.00000000E+00
  0.00000000E+00  0.00000000E+00  0.00000000E+00
  0.00000000E+00  0.00000000E+00  0.00000000E+00
  0.00000000E+00  0.00000000E+00  0.00000000E+00
  0.00000000E+00  0.00000000E+00  0.00000000E+00
  0.00000000E+00  0.00000000E+00  0.00000000E+00
  0.00000000E+00  0.00000000E+00  0.00000000E+00
  0.00000000E+00  0.00000000E+00  0.00000000E+00
  0.00000000E+00  0.00000000E+00  0.00000000E+00
  0.00000000E+00  0.00000000E+00  0.00000000E+00
  0.00000000E+00  0.00000000E+00  0.00000000E+00
  0.00000000E+00  0.00000000E+00  0.00000000E+00
  0.00000000E+00  0.00000000E+00  0.00000000E+00
  0.00000000E+00  0.00000000E+00  0.00000000E+00
  0.00000000E+00  0.00000000E+00  0.00000000E+00
  0.00000000E+00  0.00000000E+00  0.00000000E+00
  0.00000000E+00  0.00000000E+00  0.00000000E+00
  0.00000000E+00  0.00000000E+00  0.00000000E+00
  0.00000000E+00  0.00000000E+00  0.00000000E+00
  0.00000000E+00  0.00000000E+00  0.00000000E+00
  0.00000000E+00  0.00000000E+00  0.00000000E+00
  0.00000000E+00  0.00000000E+00  0.00000000E+00
  0.00000000E+00  0.00000000E+00  0.00000000E+00
  0.00000000E+00  0.00000000E+00  0.00000000E+00
  0.00000000E+00  0.00000000E+00  0.00000000E+00
  0.00000000E+00  0.00000000E+00  0.00000000E+00
  0.00000000E+00  0.00000000E+00  0.00000000E+00
  0.00000000E+00  0.00000000E+00  0.00000000E+00
  0.00000000E+00  0.00000000E+00  0.00000000E+00
  0.00000000E+00  0.00000000E+00  0.00000000E+00
  0.00000000E+00  0.00000000E+00  0.00000000E+00
  0.00000000E+00  0.00000000E+00  0.00000000E+00
  0.00000000E+00  0.00000000E+00  0.00000000E+00
  0.00000000E+00  0.00000000E+00  0.00000000E+00
  0.00000000E+00  0.00000000E+00  0.00000000E+00
  0.00000000E+00  0.00000000E+00  0.00000000E+00
  0.00000000E+00  0.00000000E+00  0.00000000E+00
  0.00000000E+00  0.00000000E+00  0.00000000E+00
  0.00000000E+00  0.00000000E+00  0.00000000E+00
  0.00000000E+00  0.00000000E+00  0.00000000E+00
  0.00000000E+00  0.00000000E+00  0.00000000E+00
  0.00000000E+00  0.00000000E+00  0.00000000E+00
  0.00000000E+00  0.00000000E+00  0.00000000E+00
  0.00000000E+00  0.00000000E+00  0.00000000E+00
  0.00000000E+00  0.00000000E+00  0.00000000E+00
  0.00000000E+00  0.00000000E+00  0.00000000E+00
  0.00000000E+00  0.00000000E+00  0.00000000E+00
  0.00000000E+00  0.00000000E+00  0.00000000E+00
  0.00000000E+00  0.00000000E+00  0.00000000E+00
  0.00000000E+00  0.00000000E+00  0.00000000E+00
  0.00000000E+00  0.00000000E+00  0.00000000E+00
  0.00000000E+00  0.00000000E+00  0.00000000E+00
  0.00000000E+00  0.00000000E+00  0.00000000E+00
  0.00000000E+00  0.00000000E+00  0.00000000E+00
  0.00000000E+00  0.00000000E+00  0.00000000E+00
  0.00000000E+00  0.00000000E+00  0.00000000E+00
  0.00000000E+00  0.00000000E+00  0.00000000E+00
  0.00000000E+00  0.00000000E+00  0.00000000E+00
  0.00000000E+00  0.00000000E+00  0.00000000E+00
  0.00000000E+00  0.00000000E+00  0.00000000E+00
  0.00000000E+00  0.00000000E+00  0.00000000E+00
  0.00000000E+00  0.00000000E+00  0.00000000E+00
  0.00000000E+00  0.00000000E+00  0.00000000E+00
  0.00000000E+00  0.00000000E+00  0.00000000E+00
  0.00000000E+00  0.00000000E+00  0.00000000E+00
  0.00000000E+00  0.00000000E+00  0.00000000E+00
  0.00000000E+00  0.00000000E+00  0.00000000E+00
  0.00000000E+00  0.00000000E+00  0.00000000E+00
  0.00000000E+00  0.00000000E+00  0.00000000E+00
  0.00000000E+00  0.00000000E+00  0.00000000E+00
  0.00000000E+00  0.00000000E+00  0.00000000E+00
  0.00000000E+00  0.00000000E+00  0.00000000E+00
  0.00000000E+00  0.00000000E+00  0.00000000E+00
  0.00000000E+00  0.00000000E+00  0.00000000E+00
  0.00000000E+00  0.00000000E+00  0.00000000E+00
  0.00000000E+00  0.00000000E+00  0.00000000E+00
  0.00000000E+00  0.00000000E+00  0.00000000E+00
  0.00000000E+00  0.00000000E+00  0.00000000E+00
  0.00000000E+00  0.00000000E+00  0.00000000E+00
  0.00000000E+00  0.00000000E+00  0.00000000E+00
  0.00000000E+00  0.00000000E+00  0.00000000E+00
  0.00000000E+00  0.00000000E+00  0.00000000E+00
  0.00000000E+00  0.00000000E+00  0.00000000E+00
  0.00000000E+00  0.00000000E+00  0.00000000E+00
  0.00000000E+00  0.00000000E+00  0.00000000E+00
  0.00000000E+00  0.00000000E+00  0.00000000E+00
