Cubic diamond                           
   1.00000000000000     
    17.7216435399999988    0.0000000000000000    0.0000000000000000
     0.0000000000000000   17.7216435399999988    0.0000000000000000
     0.0000000000000000    0.0000000000000000   17.7216435399999988
   C    N 
   998     1
Direct
  0.9999749758023714  0.9999749758023714  0.9999749758023714
  0.9999435340792303  0.9999435340792303  0.1999770374903962
  0.9999533563275170  0.9999533563275170  0.3999865921426083
  0.0000128575603971  0.0000128575603971  0.5999824638318807
  0.0000071910917695  0.0000071910917695  0.7999776423243518
  0.9999435340792303  0.1999770374903962  0.9999435340792303
  0.9998765586388404  0.1999368390682153  0.1999368390682153
  0.9999220700648098  0.1999533807287156  0.3999592257778363
  0.0000145446465928  0.2000134293065705  0.5999634018996689
  0.0000090982384074  0.2000077130328766  0.7999534655011050
  0.9999533563275170  0.3999865921426083  0.9999533563275170
  0.9999220700648098  0.3999592257778363  0.1999533807287156
  0.9999857049952243  0.3999631614474226  0.3999631614474226
  0.0000679659763586  0.3999926155725200  0.5999596399601435
  0.0000673634079480  0.4000034851014538  0.7999455516469016
  0.0000128575603971  0.5999824638318807  0.0000128575603971
  0.0000145446465928  0.5999634018996689  0.2000134293065705
  0.0000679659763586  0.5999596399601435  0.3999926155725200
  0.0001044455250966  0.5999813018542426  0.5999813018542426
  0.0000682287660876  0.5999980040606891  0.7999974426851938
  0.0000071910917695  0.7999776423243518  0.0000071910917695
  0.0000090982384074  0.7999534655011050  0.2000077130328766
  0.0000673634079480  0.7999455516469016  0.4000034851014538
  0.0000682287660876  0.7999974426851938  0.5999980040606891
  0.0000373447659154  0.8000015565827421  0.8000015565827421
  0.1999770374903962  0.9999435340792303  0.9999435340792303
  0.1999368390682153  0.9998765586388404  0.1999368390682153
  0.1999533807287156  0.9999220700648098  0.3999592257778363
  0.2000134293065705  0.0000145446465928  0.5999634018996689
  0.2000077130328766  0.0000090982384074  0.7999534655011050
  0.1999368390682153  0.1999368390682153  0.9998765586388404
  0.1997941969292047  0.1997941969292047  0.1997941969292047
  0.1996517741194737  0.1996517741194737  0.3998089691131489
  0.2000493044793065  0.2000493044793065  0.5998747610471953
  0.2000260752569070  0.2000260752569070  0.7999039829758180
  0.1999533807287156  0.3999592257778363  0.9999220700648098
  0.1996517741194737  0.3998089691131489  0.1996517741194737
  0.1998676476109208  0.3997471227540416  0.3997471227540416
  0.2003777999090553  0.4000136119698387  0.5995704293641912
  0.2000819778036049  0.4000092609494958  0.7999001554448171
  0.2000134293065705  0.5999634018996689  0.0000145446465928
  0.2000493044793065  0.5998747610471953  0.2000493044793065
  0.2003777999090553  0.5995704293641912  0.4000136119698387
  0.2000919184110043  0.6000067795563776  0.6000067795563776
  0.2000399504421939  0.5999997550745134  0.7999936504329950
  0.2000077130328766  0.7999534655011050  0.0000090982384074
  0.2000260752569070  0.7999039829758180  0.2000260752569070
  0.2000819778036049  0.7999001554448171  0.4000092609494958
  0.2000399504421939  0.7999936504329950  0.5999997550745134
  0.2000221454843276  0.7999975615599768  0.7999975615599768
  0.3999865921426083  0.9999533563275170  0.9999533563275170
  0.3999592257778363  0.9999220700648098  0.1999533807287156
  0.3999631614474226  0.9999857049952243  0.3999631614474226
  0.3999926155725200  0.0000679659763586  0.5999596399601435
  0.4000034851014538  0.0000673634079480  0.7999455516469016
  0.3999592257778363  0.1999533807287156  0.9999220700648098
  0.3998089691131489  0.1996517741194737  0.1996517741194737
  0.3997471227540416  0.1998676476109208  0.3997471227540416
  0.4000136119698387  0.2003777999090553  0.5995704293641912
  0.4000092609494958  0.2000819778036049  0.7999001554448171
  0.3999631614474226  0.3999631614474226  0.9999857049952243
  0.3997471227540416  0.3997471227540416  0.1998676476109208
  0.4003500118642586  0.4003500118642586  0.5999255649780881
  0.4000458835456331  0.4000458835456331  0.8000144964922367
  0.3999926155725200  0.5999596399601435  0.0000679659763586
  0.4000136119698387  0.5995704293641912  0.2003777999090553
  0.4003500118642586  0.5999255649780881  0.4003500118642586
  0.3999250868207005  0.6007998742914363  0.6007998742914363
  0.4000526553031178  0.6000577770549805  0.8001056596333398
  0.4000034851014538  0.7999455516469016  0.0000673634079480
  0.4000092609494958  0.7999001554448171  0.2000819778036049
  0.4000458835456331  0.8000144964922367  0.4000458835456331
  0.4000526553031178  0.8001056596333398  0.6000577770549805
  0.4000184625781859  0.8000726866332389  0.8000726866332389
  0.5999824638318807  0.0000128575603971  0.0000128575603971
  0.5999634018996689  0.0000145446465928  0.2000134293065705
  0.5999596399601435  0.0000679659763586  0.3999926155725200
  0.5999813018542426  0.0001044455250966  0.5999813018542426
  0.5999980040606891  0.0000682287660876  0.7999974426851938
  0.5999634018996689  0.2000134293065705  0.0000145446465928
  0.5998747610471953  0.2000493044793065  0.2000493044793065
  0.5995704293641912  0.2003777999090553  0.4000136119698387
  0.6000067795563776  0.2000919184110043  0.6000067795563776
  0.5999997550745134  0.2000399504421939  0.7999936504329950
  0.5999596399601435  0.3999926155725200  0.0000679659763586
  0.5995704293641912  0.4000136119698387  0.2003777999090553
  0.5999255649780881  0.4003500118642586  0.4003500118642586
  0.6007998742914363  0.3999250868207005  0.6007998742914363
  0.6000577770549805  0.4000526553031178  0.8001056596333398
  0.5999813018542426  0.5999813018542426  0.0001044455250966
  0.6000067795563776  0.6000067795563776  0.2000919184110043
  0.6007998742914363  0.6007998742914363  0.3999250868207005
  0.6002234348874117  0.6002234348874117  0.6002234348874117
  0.6000909170738751  0.6000909170738751  0.8001584501642677
  0.5999980040606891  0.7999974426851938  0.0000682287660876
  0.5999997550745134  0.7999936504329950  0.2000399504421939
  0.6000577770549805  0.8001056596333398  0.4000526553031178
  0.6000909170738751  0.8001584501642677  0.6000909170738751
  0.6000397162487624  0.8000824717766367  0.8000824717766367
  0.7999776423243518  0.0000071910917695  0.0000071910917695
  0.7999534655011050  0.0000090982384074  0.2000077130328766
  0.7999455516469016  0.0000673634079480  0.4000034851014538
  0.7999974426851938  0.0000682287660876  0.5999980040606891
  0.8000015565827421  0.0000373447659154  0.8000015565827421
  0.7999534655011050  0.2000077130328766  0.0000090982384074
  0.7999039829758180  0.2000260752569070  0.2000260752569070
  0.7999001554448171  0.2000819778036049  0.4000092609494958
  0.7999936504329950  0.2000399504421939  0.5999997550745134
  0.7999975615599768  0.2000221454843276  0.7999975615599768
  0.7999455516469016  0.4000034851014538  0.0000673634079480
  0.7999001554448171  0.4000092609494958  0.2000819778036049
  0.8000144964922367  0.4000458835456331  0.4000458835456331
  0.8001056596333398  0.4000526553031178  0.6000577770549805
  0.8000726866332389  0.4000184625781859  0.8000726866332389
  0.7999974426851938  0.5999980040606891  0.0000682287660876
  0.7999936504329950  0.5999997550745134  0.2000399504421939
  0.8001056596333398  0.6000577770549805  0.4000526553031178
  0.8001584501642677  0.6000909170738751  0.6000909170738751
  0.8000824717766367  0.6000397162487624  0.8000824717766367
  0.8000015565827421  0.8000015565827421  0.0000373447659154
  0.7999975615599768  0.7999975615599768  0.2000221454843276
  0.8000726866332389  0.8000726866332389  0.4000184625781859
  0.8000824717766367  0.8000824717766367  0.6000397162487624
  0.8000438402303617  0.8000438402303617  0.8000438402303617
  0.0499571840461316  0.0499571840461316  0.0499571840461316
  0.0499162806631852  0.0499162806631852  0.2499599107692296
  0.0499347897475369  0.0499347897475369  0.4499721074646859
  0.0500148990934048  0.0500148990934048  0.6499709230074092
  0.0499995680905665  0.0499995680905665  0.8499622303214646
  0.0499162806631852  0.2499599107692296  0.0499162806631852
  0.0498433819464040  0.2499005506449664  0.2499005506449664
  0.0499387227589886  0.2499480424708950  0.4499439904507492
  0.0500503409248743  0.2500165252127366  0.6499418469847617
  0.0500074367008931  0.2500013561078034  0.8499301247081235
  0.0499347897475369  0.4499721074646859  0.0499347897475369
  0.0499387227589886  0.4499439904507492  0.2499480424708950
  0.0500329981910042  0.4499508776765764  0.4499508776765764
  0.0501089654616724  0.4499809066550806  0.6499274053072563
  0.0500532107751166  0.4499885649626559  0.8499423784014536
  0.0500148990934048  0.6499709230074092  0.0500148990934048
  0.0500503409248743  0.6499418469847617  0.2500165252127366
  0.0501089654616724  0.6499274053072563  0.4499809066550806
  0.0500913463227027  0.6499752426723510  0.6499752426723510
  0.0500485487283625  0.6499876277210850  0.8499966692159119
  0.0499995680905665  0.8499622303214646  0.0499995680905665
  0.0500074367008931  0.8499301247081235  0.2500013561078034
  0.0500532107751166  0.8499423784014536  0.4499885649626559
  0.0500485487283625  0.8499966692159119  0.6499876277210850
  0.0500237417144047  0.8499925150422654  0.8499925150422654
  0.2499599107692296  0.0499162806631852  0.0499162806631852
  0.2499005506449664  0.0498433819464040  0.2499005506449664
  0.2499480424708950  0.0499387227589886  0.4499439904507492
  0.2500165252127366  0.0500503409248743  0.6499418469847617
  0.2500013561078034  0.0500074367008931  0.8499301247081235
  0.2499005506449664  0.2499005506449664  0.0498433819464040
  0.2497119673893830  0.2497119673893830  0.2497119673893830
  0.2495427428742421  0.2495427428742421  0.4496754357884736
  0.2501060313614810  0.2501060313614810  0.6497710362476832
  0.2500116434849442  0.2500116434849442  0.8499061166307182
  0.2499480424708950  0.4499439904507492  0.0499387227589886
  0.2495427428742421  0.4496754357884736  0.2495427428742421
  0.2501802626181152  0.4497705969742534  0.4497705969742534
  0.2503525712727558  0.4498618727148612  0.6496974481176168
  0.2500351255854941  0.4499932034759348  0.8499605880402564
  0.2500165252127366  0.6499418469847617  0.0500503409248743
  0.2501060313614810  0.6497710362476832  0.2501060313614810
  0.2503525712727558  0.6496974481176168  0.4498618727148612
  0.2501056436000921  0.6499845383452386  0.6499845383452386
  0.2500355234763912  0.6499900315725985  0.8500137090504978
  0.2500013561078034  0.8499301247081235  0.0500074367008931
  0.2500116434849442  0.8499061166307182  0.2500116434849442
  0.2500351255854941  0.8499605880402564  0.4499932034759348
  0.2500355234763912  0.8500137090504978  0.6499900315725985
  0.2500204538470892  0.8499925995257465  0.8499925995257465
  0.4499721074646859  0.0499347897475369  0.0499347897475369
  0.4499439904507492  0.0499387227589886  0.2499480424708950
  0.4499508776765764  0.0500329981910042  0.4499508776765764
  0.4499809066550806  0.0501089654616724  0.6499274053072563
  0.4499885649626559  0.0500532107751166  0.8499423784014536
  0.4499439904507492  0.2499480424708950  0.0499387227589886
  0.4496754357884736  0.2495427428742421  0.2495427428742421
  0.4497705969742534  0.2501802626181152  0.4497705969742534
  0.4498618727148612  0.2503525712727558  0.6496974481176168
  0.4499932034759348  0.2500351255854941  0.8499605880402564
  0.4499508776765764  0.4499508776765764  0.0500329981910042
  0.4497705969742534  0.4497705969742534  0.2501802626181152
  0.4502078843670742  0.4502078843670742  0.6501006773751283
  0.4500323302803577  0.4500323302803577  0.8500509556709830
  0.4499809066550806  0.6499274053072563  0.0501089654616724
  0.4498618727148612  0.6496974481176168  0.2503525712727558
  0.4502078843670742  0.6501006773751283  0.4502078843670742
  0.4502837086683992  0.6503324169064403  0.6503324169064403
  0.4500473023966233  0.6500485671543248  0.8500999751933243
  0.4499885649626559  0.8499423784014536  0.0500532107751166
  0.4499932034759348  0.8499605880402564  0.2500351255854941
  0.4500323302803577  0.8500509556709830  0.4500323302803577
  0.4500473023966233  0.8500999751933243  0.6500485671543248
  0.4500180950102595  0.8500486650097019  0.8500486650097019
  0.6499709230074092  0.0500148990934048  0.0500148990934048
  0.6499418469847617  0.0500503409248743  0.2500165252127366
  0.6499274053072563  0.0501089654616724  0.4499809066550806
  0.6499752426723510  0.0500913463227027  0.6499752426723510
  0.6499876277210850  0.0500485487283625  0.8499966692159119
  0.6499418469847617  0.2500165252127366  0.0500503409248743
  0.6497710362476832  0.2501060313614810  0.2501060313614810
  0.6496974481176168  0.2503525712727558  0.4498618727148612
  0.6499845383452386  0.2501056436000921  0.6499845383452386
  0.6499900315725985  0.2500355234763912  0.8500137090504978
  0.6499274053072563  0.4499809066550806  0.0501089654616724
  0.6496974481176168  0.4498618727148612  0.2503525712727558
  0.6501006773751283  0.4502078843670742  0.4502078843670742
  0.6503324169064403  0.4502837086683992  0.6503324169064403
  0.6500485671543248  0.4500473023966233  0.8500999751933243
  0.6499752426723510  0.6499752426723510  0.0500913463227027
  0.6499845383452386  0.6499845383452386  0.2501056436000921
  0.6503324169064403  0.6503324169064403  0.4502837086683992
  0.6501809553184810  0.6501809553184810  0.6501809553184810
  0.6500655833491908  0.6500655833491908  0.8501280253026856
  0.6499876277210850  0.8499966692159119  0.0500485487283625
  0.6499900315725985  0.8500137090504978  0.2500355234763912
  0.6500485671543248  0.8500999751933243  0.4500473023966233
  0.6500655833491908  0.8501280253026856  0.6500655833491908
  0.6500240921575235  0.8500581715905439  0.8500581715905439
  0.8499622303214646  0.0499995680905665  0.0499995680905665
  0.8499301247081235  0.0500074367008931  0.2500013561078034
  0.8499423784014536  0.0500532107751166  0.4499885649626559
  0.8499966692159119  0.0500485487283625  0.6499876277210850
  0.8499925150422654  0.0500237417144047  0.8499925150422654
  0.8499301247081235  0.2500013561078034  0.0500074367008931
  0.8499061166307182  0.2500116434849442  0.2500116434849442
  0.8499605880402564  0.2500351255854941  0.4499932034759348
  0.8500137090504978  0.2500355234763912  0.6499900315725985
  0.8499925995257465  0.2500204538470892  0.8499925995257465
  0.8499423784014536  0.4499885649626559  0.0500532107751166
  0.8499605880402564  0.4499932034759348  0.2500351255854941
  0.8500509556709830  0.4500323302803577  0.4500323302803577
  0.8500999751933243  0.4500473023966233  0.6500485671543248
  0.8500486650097019  0.4500180950102595  0.8500486650097019
  0.8499966692159119  0.6499876277210850  0.0500485487283625
  0.8500137090504978  0.6499900315725985  0.2500355234763912
  0.8500999751933243  0.6500485671543248  0.4500473023966233
  0.8501280253026856  0.6500655833491908  0.6500655833491908
  0.8500581715905439  0.6500240921575235  0.8500581715905439
  0.8499925150422654  0.8499925150422654  0.0500237417144047
  0.8499925995257465  0.8499925995257465  0.2500204538470892
  0.8500486650097019  0.8500486650097019  0.4500180950102595
  0.8500581715905439  0.8500581715905439  0.6500240921575235
  0.8500259062816696  0.8500259062816696  0.8500259062816696
  0.0999554421340984  0.0999554421340984  0.9999298840667025
  0.0998865145613566  0.0998865145613566  0.1999170371507724
  0.0998666025491040  0.0998666025491040  0.3999442409652467
  0.1000122482810717  0.1000122482810717  0.5999536251423899
  0.1000067363723236  0.1000067363723236  0.7999454311507775
  0.0999301490384438  0.2999630453039425  0.9998950978036030
  0.0997928369415460  0.2998772554551254  0.1998326218780773
  0.0998894191007532  0.2998838640274530  0.3998808991652321
  0.1000840703489965  0.3000054971107041  0.5998870821409054
  0.1000478347691765  0.3000087123203921  0.7999109280024035
  0.0999918512355041  0.4999744261862000  0.9999715708116880
  0.0999769259489853  0.4999142172831850  0.1999693595892022
  0.1000483940518291  0.4998985633260494  0.3999373779883956
  0.1001363112365835  0.4999490359338372  0.5999076334019191
  0.1000899115572362  0.5000017443413501  0.7999239911774615
  0.1000172901042918  0.6999679513522372  0.0000110206010472
  0.1000362190893866  0.6999301225472710  0.2000203818018473
  0.1001619068083765  0.6998393902668545  0.4000033818970106
  0.1000863638717104  0.6999658664960983  0.5999860900157798
  0.1000452847102869  0.6999910694194604  0.7999929917749690
  0.0999934484094240  0.8999606569880018  0.9999825465110277
  0.0999838015815628  0.8999194893994477  0.1999880199594274
  0.1000147063903476  0.8999329531694135  0.3999914731100638
  0.1000324365739279  0.8999908746916161  0.5999851754367524
  0.1000178645234667  0.8999963742605596  0.7999809780012015
  0.2999630453039425  0.0999301490384438  0.9998950978036030
  0.2998772554551254  0.0997928369415460  0.1998326218780773
  0.2998838640274530  0.0998894191007532  0.3998808991652321
  0.3000054971107041  0.1000840703489965  0.5998870821409054
  0.3000087123203921  0.1000478347691765  0.7999109280024035
  0.2999439158629753  0.2999439158629753  0.9999029834557550
  0.2996552689758940  0.2996552689758940  0.1995412431507951
  0.2989909100567237  0.2989909100567237  0.3993572011597087
  0.3002002626415993  0.3002002626415993  0.5996049293471940
  0.3000459884937450  0.3000459884937450  0.7999010774581725
  0.2999842002406365  0.4999610356642616 -0.0000018127432258
  0.2999281326670131  0.4997022719596640  0.2000540544728913
  0.3008766722511469  0.4985722599954304  0.4001081405346094
  0.3002043757704377  0.5004296368679900  0.5999812434390692
  0.3000541266246762  0.5000169441994740  0.8000033433396238
  0.3000107827284448  0.6999489348820640  0.0000536208107407
  0.3000419025706386  0.6998280199863259  0.2001181616826734
  0.3001832409622280  0.6998489041625586  0.4000606061578283
  0.3000253108189899  0.7001180508380869  0.6001008620656729
  0.3000204915608042  0.7000314494333429  0.8000549315483292
  0.2999956943372158  0.8999454432579318  0.9999901471601760
  0.2999914952594771  0.8999118581479997  0.1999977876075362
  0.3000057291648863  0.8999652745886879  0.3999953846410071
  0.3000173918225270  0.9000312152953041  0.5999925250341109
  0.3000094379944402  0.9000249933737299  0.7999881973522885
  0.4999744261862000  0.0999918512355041  0.9999715708116880
  0.4999142172831850  0.0999769259489853  0.1999693595892022
  0.4998985633260494  0.1000483940518291  0.3999373779883956
  0.4999490359338372  0.1001363112365835  0.5999076334019191
  0.5000017443413501  0.1000899115572362  0.7999239911774615
  0.4999610356642616  0.2999842002406365 -0.0000018127432258
  0.4997022719596640  0.2999281326670131  0.2000540544728913
  0.4985722599954304  0.3008766722511469  0.4001081405346094
  0.5004296368679900  0.3002043757704377  0.5999812434390692
  0.5000169441994740  0.3000541266246762  0.8000033433396238
  0.4999727752029530  0.4999727752029530  0.0000690844870696
  0.4998394525401023  0.4998394525401023  0.2002028223604015
  0.5044256353720927  0.5044256353720927  0.3986261827240762
  0.5003095883005223  0.5003095883005223  0.6006473655948734
  0.5000687451982745  0.5000687451982745  0.8001265550091248
  0.4999933660505882  0.6999676138617209  0.0000972746299149
  0.5000530171331662  0.6998517454469149  0.2001771603123182
  0.5000980891363563  0.7001457583683478  0.4001405005823548
  0.5001618106164296  0.7002637321047420  0.6001869885518983
  0.5000586180214233  0.7000918354682030  0.8001315452480476
  0.4999964472340927  0.8999830603869061  0.0000339209135933
  0.4999876428510145  0.8999715805844036  0.2000212861310448
  0.5000057124847599  0.9000442025043726  0.4000120696397352
  0.5000212861135626  0.9000997963836342  0.6000212795407327
  0.5000120056314638  0.9000738097937634  0.8000288298390810
  0.6999679513522372  0.1000172901042918  0.0000110206010472
  0.6999301225472710  0.1000362190893866  0.2000203818018473
  0.6998393902668545  0.1001619068083765  0.4000033818970106
  0.6999658664960983  0.1000863638717104  0.5999860900157798
  0.6999910694194604  0.1000452847102869  0.7999929917749690
  0.6999489348820640  0.3000107827284448  0.0000536208107407
  0.6998280199863259  0.3000419025706386  0.2001181616826734
  0.6998489041625586  0.3001832409622280  0.4000606061578283
  0.7001180508380869  0.3000253108189899  0.6001008620656729
  0.7000314494333429  0.3000204915608042  0.8000549315483292
  0.6999676138617209  0.4999933660505882  0.0000972746299149
  0.6998517454469149  0.5000530171331662  0.2001771603123182
  0.7001457583683478  0.5000980891363563  0.4001405005823548
  0.7002637321047420  0.5001618106164296  0.6001869885518983
  0.7000918354682030  0.5000586180214233  0.8001315452480476
  0.6999995327466163  0.6999995327466163  0.0000772412011662
  0.7000112896624016  0.7000112896624016  0.2000405176639085
  0.7002114956159835  0.7002114956159835  0.4000357419657366
  0.7001438624470095  0.7001438624470095  0.6001171725107166
  0.7000704075237359  0.7000704075237359  0.8001019295538225
  0.6999912114521490  0.9000108568877486  0.0000322023296360
  0.6999806797980849  0.9000122040526708  0.2000207313533584
  0.7000086771891906  0.9000723904819473  0.4000151425560731
  0.7000349685723113  0.9001058990873534  0.6000258700663997
  0.7000180089738665  0.9000612506927864  0.8000321923636384
  0.8999606569880018  0.0999934484094240  0.9999825465110277
  0.8999194893994477  0.0999838015815628  0.1999880199594274
  0.8999329531694135  0.1000147063903476  0.3999914731100638
  0.8999908746916161  0.1000324365739279  0.5999851754367524
  0.8999963742605596  0.1000178645234667  0.7999809780012015
  0.8999454432579318  0.2999956943372158  0.9999901471601760
  0.8999118581479997  0.2999914952594771  0.1999977876075362
  0.8999652745886879  0.3000057291648863  0.3999953846410071
  0.9000312152953041  0.3000173918225270  0.5999925250341109
  0.9000249933737299  0.3000094379944402  0.7999881973522885
  0.8999830603869061  0.4999964472340927  0.0000339209135933
  0.8999715805844036  0.4999876428510145  0.2000212861310448
  0.9000442025043726  0.5000057124847599  0.4000120696397352
  0.9000997963836342  0.5000212861135626  0.6000212795407327
  0.9000738097937634  0.5000120056314638  0.8000288298390810
  0.9000108568877486  0.6999912114521490  0.0000322023296360
  0.9000122040526708  0.6999806797980849  0.2000207313533584
  0.9000723904819473  0.7000086771891906  0.4000151425560731
  0.9001058990873534  0.7000349685723113  0.6000258700663997
  0.9000612506927864  0.7000180089738665  0.8000321923636384
  0.8999917014206733  0.8999917014206733  0.0000061902420884
  0.8999780758652848  0.8999780758652848  0.2000039714230640
  0.9000094056648277  0.9000094056648277  0.4000035354989169
  0.9000376743725238  0.9000376743725238  0.6000028226450492
  0.9000210368983304  0.9000210368983304  0.8000052727383358
  0.0999554421340984  0.9999298840667025  0.0999554421340984
  0.0999301490384438  0.9998950978036030  0.2999630453039425
  0.0999918512355041  0.9999715708116880  0.4999744261862000
  0.1000172901042918  0.0000110206010472  0.6999679513522372
  0.0999934484094240  0.9999825465110277  0.8999606569880018
  0.0998865145613566  0.1999170371507724  0.0998865145613566
  0.0997928369415460  0.1998326218780773  0.2998772554551254
  0.0999769259489853  0.1999693595892022  0.4999142172831850
  0.1000362190893866  0.2000203818018473  0.6999301225472710
  0.0999838015815628  0.1999880199594274  0.8999194893994477
  0.0998666025491040  0.3999442409652467  0.0998666025491040
  0.0998894191007532  0.3998808991652321  0.2998838640274530
  0.1000483940518291  0.3999373779883956  0.4998985633260494
  0.1001619068083765  0.4000033818970106  0.6998393902668545
  0.1000147063903476  0.3999914731100638  0.8999329531694135
  0.1000122482810717  0.5999536251423899  0.1000122482810717
  0.1000840703489965  0.5998870821409054  0.3000054971107041
  0.1001363112365835  0.5999076334019191  0.4999490359338372
  0.1000863638717104  0.5999860900157798  0.6999658664960983
  0.1000324365739279  0.5999851754367524  0.8999908746916161
  0.1000067363723236  0.7999454311507775  0.1000067363723236
  0.1000478347691765  0.7999109280024035  0.3000087123203921
  0.1000899115572362  0.7999239911774615  0.5000017443413501
  0.1000452847102869  0.7999929917749690  0.6999910694194604
  0.1000178645234667  0.7999809780012015  0.8999963742605596
  0.2999630453039425  0.9998950978036030  0.0999301490384438
  0.2999439158629753  0.9999029834557550  0.2999439158629753
  0.2999842002406365 -0.0000018127432258  0.4999610356642616
  0.3000107827284448  0.0000536208107407  0.6999489348820640
  0.2999956943372158  0.9999901471601760  0.8999454432579318
  0.2998772554551254  0.1998326218780773  0.0997928369415460
  0.2996552689758940  0.1995412431507951  0.2996552689758940
  0.2999281326670131  0.2000540544728913  0.4997022719596640
  0.3000419025706386  0.2001181616826734  0.6998280199863259
  0.2999914952594771  0.1999977876075362  0.8999118581479997
  0.2998838640274530  0.3998808991652321  0.0998894191007532
  0.2989909100567237  0.3993572011597087  0.2989909100567237
  0.3008766722511469  0.4001081405346094  0.4985722599954304
  0.3001832409622280  0.4000606061578283  0.6998489041625586
  0.3000057291648863  0.3999953846410071  0.8999652745886879
  0.3000054971107041  0.5998870821409054  0.1000840703489965
  0.3002002626415993  0.5996049293471940  0.3002002626415993
  0.3002043757704377  0.5999812434390692  0.5004296368679900
  0.3000253108189899  0.6001008620656729  0.7001180508380869
  0.3000173918225270  0.5999925250341109  0.9000312152953041
  0.3000087123203921  0.7999109280024035  0.1000478347691765
  0.3000459884937450  0.7999010774581725  0.3000459884937450
  0.3000541266246762  0.8000033433396238  0.5000169441994740
  0.3000204915608042  0.8000549315483292  0.7000314494333429
  0.3000094379944402  0.7999881973522885  0.9000249933737299
  0.4999744261862000  0.9999715708116880  0.0999918512355041
  0.4999610356642616 -0.0000018127432258  0.2999842002406365
  0.4999727752029530  0.0000690844870696  0.4999727752029530
  0.4999933660505882  0.0000972746299149  0.6999676138617209
  0.4999964472340927  0.0000339209135933  0.8999830603869061
  0.4999142172831850  0.1999693595892022  0.0999769259489853
  0.4997022719596640  0.2000540544728913  0.2999281326670131
  0.4998394525401023  0.2002028223604015  0.4998394525401023
  0.5000530171331662  0.2001771603123182  0.6998517454469149
  0.4999876428510145  0.2000212861310448  0.8999715805844036
  0.4998985633260494  0.3999373779883956  0.1000483940518291
  0.4985722599954304  0.4001081405346094  0.3008766722511469
  0.5044256353720927  0.3986261827240762  0.5044256353720927
  0.5000980891363563  0.4001405005823548  0.7001457583683478
  0.5000057124847599  0.4000120696397352  0.9000442025043726
  0.4999490359338372  0.5999076334019191  0.1001363112365835
  0.5004296368679900  0.5999812434390692  0.3002043757704377
  0.5003095883005223  0.6006473655948734  0.5003095883005223
  0.5001618106164296  0.6001869885518983  0.7002637321047420
  0.5000212861135626  0.6000212795407327  0.9000997963836342
  0.5000017443413501  0.7999239911774615  0.1000899115572362
  0.5000169441994740  0.8000033433396238  0.3000541266246762
  0.5000687451982745  0.8001265550091248  0.5000687451982745
  0.5000586180214233  0.8001315452480476  0.7000918354682030
  0.5000120056314638  0.8000288298390810  0.9000738097937634
  0.6999679513522372  0.0000110206010472  0.1000172901042918
  0.6999489348820640  0.0000536208107407  0.3000107827284448
  0.6999676138617209  0.0000972746299149  0.4999933660505882
  0.6999995327466163  0.0000772412011662  0.6999995327466163
  0.6999912114521490  0.0000322023296360  0.9000108568877486
  0.6999301225472710  0.2000203818018473  0.1000362190893866
  0.6998280199863259  0.2001181616826734  0.3000419025706386
  0.6998517454469149  0.2001771603123182  0.5000530171331662
  0.7000112896624016  0.2000405176639085  0.7000112896624016
  0.6999806797980849  0.2000207313533584  0.9000122040526708
  0.6998393902668545  0.4000033818970106  0.1001619068083765
  0.6998489041625586  0.4000606061578283  0.3001832409622280
  0.7001457583683478  0.4001405005823548  0.5000980891363563
  0.7002114956159835  0.4000357419657366  0.7002114956159835
  0.7000086771891906  0.4000151425560731  0.9000723904819473
  0.6999658664960983  0.5999860900157798  0.1000863638717104
  0.7001180508380869  0.6001008620656729  0.3000253108189899
  0.7002637321047420  0.6001869885518983  0.5001618106164296
  0.7001438624470095  0.6001171725107166  0.7001438624470095
  0.7000349685723113  0.6000258700663997  0.9001058990873534
  0.6999910694194604  0.7999929917749690  0.1000452847102869
  0.7000314494333429  0.8000549315483292  0.3000204915608042
  0.7000918354682030  0.8001315452480476  0.5000586180214233
  0.7000704075237359  0.8001019295538225  0.7000704075237359
  0.7000180089738665  0.8000321923636384  0.9000612506927864
  0.8999606569880018  0.9999825465110277  0.0999934484094240
  0.8999454432579318  0.9999901471601760  0.2999956943372158
  0.8999830603869061  0.0000339209135933  0.4999964472340927
  0.9000108568877486  0.0000322023296360  0.6999912114521490
  0.8999917014206733  0.0000061902420884  0.8999917014206733
  0.8999194893994477  0.1999880199594274  0.0999838015815628
  0.8999118581479997  0.1999977876075362  0.2999914952594771
  0.8999715805844036  0.2000212861310448  0.4999876428510145
  0.9000122040526708  0.2000207313533584  0.6999806797980849
  0.8999780758652848  0.2000039714230640  0.8999780758652848
  0.8999329531694135  0.3999914731100638  0.1000147063903476
  0.8999652745886879  0.3999953846410071  0.3000057291648863
  0.9000442025043726  0.4000120696397352  0.5000057124847599