Cubic diamond                           
   1.00000000000000     
    14.1773148296000002    0.0000000000000000    0.0000000000000000
     0.0000000000000000   14.1773148296000002    0.0000000000000000
     0.0000000000000000    0.0000000000000000   14.1773148296000002
   C    N 
   510     1
Direct
  0.9999813592937303  0.9999813592937303  0.0000186407062700
  0.0000299095509482  0.0000299095509482  0.2499982497995340
  0.9999678745976839  0.9999678745976839  0.5000033211231051
  0.9999253198489106  0.9999253198489106  0.7500163802424467
  0.9999253198489106  0.2499836197575535  0.0000746801510893
  0.9999700612357083  0.2500215268827251  0.2500420801923658
  0.9998530104375588  0.2499816976549421  0.5000311889543384
  0.9997943004413511  0.2499317723834961  0.7500682276165039
  0.9999678745976839  0.4999966788768950  0.0000321254023162
  0.0001422112267848  0.5000295678881342  0.2500391589512236
  0.9999960044833184  0.4999932418048817  0.5000067581951184
  0.9998530104375588  0.4999688110456617  0.7500183023450580
  0.0000299095509482  0.7500017502004659  0.9999700904490519
  0.0001684042568338  0.7500337761331324  0.2499662238668677
  0.0001422112267848  0.7499608410487766  0.4999704321118656
  0.9999700612357083  0.7499579198076343  0.7499784731172752
  0.2499836197575535  0.9999253198489106  0.0000746801510893
  0.2500215268827251  0.9999700612357083  0.2500420801923658
  0.2499816976549421  0.9998530104375588  0.5000311889543384
  0.2499317723834961  0.9997943004413511  0.7500682276165039
  0.2499317723834961  0.2499317723834961  0.0002056995586490
  0.2499656637472298  0.2499656637472298  0.2501099439741852
  0.2490047314816522  0.2490047314816522  0.4998863625427337
  0.2497385727892969  0.2497385727892969  0.7502614272107032
  0.2499816976549421  0.4999688110456617  0.0001469895624414
  0.2505147788265306  0.4999696182619607  0.2504709644291424
  0.2500894283829478  0.4995736227654223  0.5004263772345779
  0.2490047314816522  0.5001136374572659  0.7509952685183481
  0.2500215268827251  0.7499579198076343  0.0000299387642916
  0.2501535397437158  0.7499300828307741  0.2500699171692260
  0.2505147788265306  0.7495290355708577  0.5000303817380390
  0.2499656637472298  0.7498900560258149  0.7500343362527702
  0.4999966788768950  0.9999678745976839  0.0000321254023162
  0.5000295678881342  0.0001422112267848  0.2500391589512236
  0.4999932418048817  0.9999960044833184  0.5000067581951184
  0.4999688110456617  0.9998530104375588  0.7500183023450580
  0.4999688110456617  0.2499816976549421  0.0001469895624414
  0.4999696182619607  0.2505147788265306  0.2504709644291424
  0.4995736227654223  0.2500894283829478  0.5004263772345779
  0.5001136374572659  0.2490047314816522  0.7509952685183481
  0.4999932418048817  0.4999932418048817  0.0000039955166817
  0.5002923273465498  0.5002923273465498  0.2498592979756934
  0.4995736227654223  0.4995736227654223  0.7499105716170522
  0.5000295678881342  0.7499608410487766  0.9998577887732152
  0.5002193537587390  0.7504134480366742  0.2495865519633258
  0.5002923273465498  0.7501407020243066  0.4997076726534501
  0.4999696182619607  0.7495290355708577  0.7494852211734694
  0.7500017502004659  0.0000299095509482  0.9999700904490519
  0.7500337761331324  0.0001684042568338  0.2499662238668677
  0.7499608410487766  0.0001422112267848  0.4999704321118656
  0.7499579198076343  0.9999700612357083  0.7499784731172752
  0.7499579198076343  0.2500215268827251  0.0000299387642916
  0.7499300828307741  0.2501535397437158  0.2500699171692260
  0.7495290355708577  0.2505147788265306  0.5000303817380390
  0.7498900560258149  0.2499656637472298  0.7500343362527702
  0.7499608410487766  0.5000295678881342  0.9998577887732152
  0.7504134480366742  0.5002193537587390  0.2495865519633258
  0.7501407020243066  0.5002923273465498  0.4997076726534501
  0.7495290355708577  0.4999696182619607  0.7494852211734694
  0.7500337761331324  0.7500337761331324  0.9998315957431659
  0.7502300538060973  0.7502300538060973  0.2497699461939027
  0.7504134480366742  0.7504134480366742  0.4997806462412612
  0.7499300828307741  0.7499300828307741  0.7498464602562842
  0.0624771389016634  0.0624771389016634  0.0625572227744100
  0.0625004099124799  0.0625004099124799  0.3125480476597421
  0.0623612728699248  0.0623612728699248  0.5625618071512584
  0.0623919434164754  0.0623919434164754  0.8125686620774976
  0.0624622897534021  0.3124893611908691  0.0626137517867647
  0.0625093415742977  0.3125295096327225  0.3125869339056511
  0.0623236482840310  0.3123942193694728  0.5626064759410894
  0.0622700206932493  0.3123738676819707  0.8126448780711386
  0.0625770015769276  0.5624924784157986  0.0625718008164130
  0.0626885412644784  0.5624972827283219  0.3125726558964558
  0.0625162046053705  0.5624216023941917  0.5625325526736544
  0.0623873496994676  0.5624128355556743  0.8125584461978436
  0.0625486896394704  0.8124843414486247  0.0624955784602606
  0.0626576498686788  0.8124791054193535  0.3125000427643131
  0.0626391512985861  0.8123593661661498  0.5624500126795553
  0.0624859142351257  0.8124222828542593  0.8124835456930489
  0.3124893611908691  0.0624622897534021  0.0626137517867647
  0.3125295096327225  0.0625093415742977  0.3125869339056511
  0.3123942193694728  0.0623236482840310  0.5626064759410894
  0.3123738676819707  0.0622700206932493  0.8126448780711386
  0.3124900552013085  0.3124900552013085  0.0626902849728632
  0.3126626157585429  0.3126626157585429  0.3128683934843209
  0.3123347829377440  0.3123347829377440  0.5635265996688554
  0.3121935417156386  0.3121935417156386  0.8128782064635141
  0.3125396245783133  0.5624805599966678  0.0625740501973065
  0.3132831355765069  0.5624446919820362  0.3132172516466433
  0.3142988773525809  0.5602044803544604  0.5619504284171198
  0.3123973175317857  0.5622054211092095  0.8125534454912197
  0.3125450687954480  0.8124518196536811  0.0625048007906848
  0.3126211954842255  0.8124294379438314  0.3125472855709446
  0.3126651883074939  0.8122681338910333  0.5624561256774973
  0.3125384304375915  0.8123353471005781  0.8124436750369878
  0.5624924784157986  0.0625770015769276  0.0625718008164130
  0.5624972827283219  0.0626885412644784  0.3125726558964558
  0.5624216023941917  0.0625162046053705  0.5625325526736544
  0.5624128355556743  0.0623873496994676  0.8125584461978436
  0.5624805599966678  0.3125396245783133  0.0625740501973065
  0.5624446919820362  0.3132831355765069  0.3132172516466433
  0.5602044803544604  0.3142988773525809  0.5619504284171198
  0.5622054211092095  0.3123973175317857  0.8125534454912197
  0.5625505468331921  0.5625505468331921  0.0623921675702900
  0.5631247243056844  0.5631247243056844  0.3116960925173218
  0.5629872458245181  0.5629872458245181  0.5589994066146835
  0.5622962053296457  0.5622962053296457  0.8121667918875484
  0.5625564849626465  0.8125788682064524  0.0623269662741357
  0.5627055916762712  0.8128427473306993  0.3122243625402195
  0.5625970501255260  0.8125461423055501  0.5623445248863450
  0.5625002825032066  0.8122330304374002  0.8122258396507891
  0.8124843414486247  0.0625486896394704  0.0624955784602606
  0.8124791054193535  0.0626576498686788  0.3125000427643131
  0.8123593661661498  0.0626391512985861  0.5624500126795553
  0.8124222828542593  0.0624859142351257  0.8124835456930489
  0.8124518196536811  0.3125450687954480  0.0625048007906848
  0.8124294379438314  0.3126211954842255  0.3125472855709446
  0.8122681338910333  0.3126651883074939  0.5624561256774973
  0.8123353471005781  0.3125384304375915  0.8124436750369878
  0.8125788682064524  0.5625564849626465  0.0623269662741357
  0.8128427473306993  0.5627055916762712  0.3122243625402195
  0.8125461423055501  0.5625970501255260  0.5623445248863450
  0.8122330304374002  0.5625002825032066  0.8122258396507891
  0.8125585030697350  0.8125585030697350  0.0623853975547669
  0.8126822734070520  0.8126822734070520  0.3123741759076581
  0.8126920183812747  0.8126920183812747  0.5623873994961255
  0.8124607409175357  0.8124607409175357  0.8124091417388184
  0.1249461481674141  0.1249461481674141  0.0000995303551000
  0.1249728213946996  0.1249728213946996  0.2500407778077988
  0.1247571168260484  0.1247571168260484  0.5000140783488308
  0.1248466442541766  0.1248466442541766  0.7501093109815097
  0.1249360370358951  0.3749631809277997  0.0001650977397834
  0.1251601152766290  0.3749232153205028  0.2502062713643641
  0.1248221317137091  0.3748979421305723  0.5001411725439453
  0.1246759181741436  0.3748319653194853  0.7502068883027087
  0.1250142624702349  0.6249928754312261  0.0000756925521666
  0.1252263517637504  0.6249664255217015  0.2501229623227998
  0.1251884018142702  0.6248017740759232  0.5000592112180966
  0.1248445996783649  0.6249930060924487  0.7501198684320434
  0.1250106525639709  0.8749580193725855  0.0000221650093950
  0.1250901605532962  0.8749723317629006  0.2500121573425040
  0.1251628252978916  0.8748102263198372  0.5000088135226022
  0.1249859668424954  0.8748798385471138  0.7500151874881200
  0.3749631809277997  0.1249360370358951  0.0001650977397834
  0.3749232153205028  0.1251601152766290  0.2502062713643641
  0.3748979421305723  0.1248221317137091  0.5001411725439453
  0.3748319653194853  0.1246759181741436  0.7502068883027087
  0.3749639564709881  0.3749639564709881  0.0001694783608636
  0.3751726225922531  0.3751726225922531  0.2502631476167576
  0.3694800885263980  0.3694800885263980  0.4982703236663962
  0.3746327089528345  0.3746327089528345  0.7508032194847467
  0.3750184029071101  0.6249663482664888  0.0000085873238716
  0.3753519226237079  0.6250729433832828  0.2500816248858976
  0.3767705833915567  0.6238993122218247  0.5001474365021868
  0.3744563843265795  0.6247561268275841  0.7499818139010337
  0.3750003236629171  0.8749145679369480  0.9999655855008858
  0.3750929268834221  0.8750154701533104  0.2499955854655593
  0.3750922437373146  0.8749109187826341  0.4999542584001153
  0.3750255718397369  0.8748020013866001  0.7499323812850458
  0.6249928754312261  0.1250142624702349  0.0000756925521666
  0.6249664255217015  0.1252263517637504  0.2501229623227998
  0.6248017740759232  0.1251884018142702  0.5000592112180966
  0.6249930060924487  0.1248445996783649  0.7501198684320434
  0.6249663482664888  0.3750184029071101  0.0000085873238716
  0.6250729433832828  0.3753519226237079  0.2500816248858976
  0.6238993122218247  0.3767705833915567  0.5001474365021868
  0.6247561268275841  0.3744563843265795  0.7499818139010337
  0.6250101601290294  0.6250101601290294  0.9998265961468012
  0.6254090804252367  0.6254090804252367  0.2494424469408824
  0.6262411487982431  0.6262411487982431  0.4992145821246602
  0.6247520566320892  0.6247520566320892  0.7495157406071556
  0.6250245769500964  0.8750144312424720  0.9998738407796518
  0.6251273431266818  0.8752539718695704  0.2498306296967254
  0.6251079352731803  0.8751232077539624  0.4998784647256819
  0.6249794497650363  0.8748856125300721  0.7498794347818899
  0.8749580193725855  0.1250106525639709  0.0000221650093950
  0.8749723317629006  0.1250901605532962  0.2500121573425040
  0.8748102263198372  0.1251628252978916  0.5000088135226022
  0.8748798385471138  0.1249859668424954  0.7500151874881200
  0.8749145679369480  0.3750003236629171  0.9999655855008858
  0.8750154701533104  0.3750929268834221  0.2499955854655593
  0.8749109187826341  0.3750922437373146  0.4999542584001153
  0.8748020013866001  0.3750255718397369  0.7499323812850458
  0.8750144312424720  0.6250245769500964  0.9998738407796518
  0.8752539718695704  0.6251273431266818  0.2498306296967254
  0.8751232077539624  0.6251079352731803  0.4998784647256819
  0.8748856125300721  0.6249794497650363  0.7498794347818899
  0.8750185511129444  0.8750185511129444  0.9999414116533638
  0.8751135190721084  0.8751135190721084  0.2499259422895460
  0.8751294486978913  0.8751294486978913  0.4999445319309535
  0.8749636285092067  0.8749636285092067  0.7499497632237175
  0.1250106525639709  0.9999778349906049  0.1250419806274143
  0.1250142624702349  0.9999243074478332  0.3750071245687739
  0.1249360370358951  0.9998349022602167  0.6250368190722005
  0.1249461481674141  0.9999004696449000  0.8750538518325858
  0.1249859668424954  0.2499848125118799  0.1251201614528862
  0.1248445996783649  0.2498801315679568  0.3750069939075513
  0.1246759181741436  0.2497931116972912  0.6251680346805145
  0.1248466442541766  0.2498906890184904  0.8751533557458233
  0.1251628252978916  0.4999911864773977  0.1251897736801629
  0.1251884018142702  0.4999407887819034  0.3751982259240770
  0.1248221317137091  0.4998588274560547  0.6251020578694277
  0.1247571168260484  0.4999859216511692  0.8752428831739517
  0.1250901605532962  0.7499878426574961  0.1250276682370995
  0.1252263517637504  0.7498770376771929  0.3750335744782985
  0.1251601152766290  0.7497937286356360  0.6250767846794972
  0.1249728213946996  0.7499592221922012  0.8750271786053005
  0.3750003236629171  0.0000344144991141  0.1250854320630522
  0.3750184029071101  0.9999914126761283  0.3750336517335112
  0.3749639564709881  0.9998305216391364  0.6250360435290120
  0.3749631809277997  0.9998349022602167  0.8750639629641048
  0.3750255718397369  0.2500676187149544  0.1251979986133998
  0.3744563843265795  0.2500181860989663  0.3752438731724160
  0.3746327089528345  0.2491967805152535  0.6253672910471726
  0.3748319653194853  0.2497931116972912  0.8753240818258565
  0.3750922437373146  0.5000457415998847  0.1250890812173661
  0.3767705833915567  0.4998525634978130  0.3761006877781756
  0.3694800885263980  0.5017296763336038  0.6305199114736021
  0.3748979421305723  0.4998588274560547  0.8751778682862910
  0.3750929268834221  0.7500044145344409  0.1249845298466897
  0.3753519226237079  0.7499183751141022  0.3749270566167171
  0.3751726225922531  0.7497368523832424  0.6248273774077466
  0.3749232153205028  0.7497937286356360  0.8748398847233712
  0.6250245769500964  0.0001261592203482  0.1249855687575279
  0.6250101601290294  0.0001734038531987  0.3749898398709706
  0.6249663482664888  0.9999914126761283  0.6249815970928897
  0.6249928754312261  0.9999243074478332  0.8749857375297653
  0.6249794497650363  0.2501205652181100  0.1251143874699280
  0.6247520566320892  0.2504842593928445  0.3752479433679106
  0.6247561268275841  0.2500181860989663  0.6255436156734204
  0.6249930060924487  0.2498801315679568  0.8751554003216350
  0.6251079352731803  0.5001215352743181  0.1248767922460376
  0.6262411487982431  0.5007854178753398  0.3737588512017568
  0.6238993122218247  0.4998525634978130  0.6232294166084436
  0.6248017740759232  0.4999407887819034  0.8748115981857297
  0.6251273431266818  0.7501693703032748  0.1247460281304297
  0.6254090804252367  0.7505575530591176  0.3745909195747633
  0.6250729433832828  0.7499183751141022  0.6246480773762919
  0.6249664255217015  0.7498770376771929  0.8747736482362497
  0.8750185511129444  0.0000585883466362  0.1249814488870558
  0.8750144312424720  0.0001261592203482  0.3749754230499035
  0.8749145679369480  0.0000344144991141  0.6249996763370830
  0.8749580193725855  0.9999778349906049  0.8749893474360289
  0.8749636285092067  0.2500502367762826  0.1250363714907933
  0.8748856125300721  0.2501205652181100  0.3750205502349637
  0.8748020013866001  0.2500676187149544  0.6249744281602631
  0.8748798385471138  0.2499848125118799  0.8750140331575047
  0.8751294486978913  0.5000554680690465  0.1248705513021086
  0.8751232077539624  0.5001215352743181  0.3748920647268195
  0.8749109187826341  0.5000457415998847  0.6249077562626854
  0.8748102263198372  0.4999911864773977  0.8748371747021083
  0.8751135190721084  0.7500740577104539  0.1248864809278917
  0.8752539718695704  0.7501693703032748  0.3748726568733181
  0.8750154701533104  0.7500044145344409  0.6249070731165777
  0.8749723317629006  0.7499878426574961  0.8749098394467038
  0.9999778349906049  0.1250106525639709  0.1250419806274143
  0.9999243074478332  0.1250142624702349  0.3750071245687739
  0.9998349022602167  0.1249360370358951  0.6250368190722005
  0.9999004696449000  0.1249461481674141  0.8750538518325858
  0.0000344144991141  0.3750003236629171  0.1250854320630522
  0.9999914126761283  0.3750184029071101  0.3750336517335112
  0.9998305216391364  0.3749639564709881  0.6250360435290120
  0.9998349022602167  0.3749631809277997  0.8750639629641048
  0.0001261592203482  0.6250245769500964  0.1249855687575279
  0.0001734038531987  0.6250101601290294  0.3749898398709706
  0.9999914126761283  0.6249663482664888  0.6249815970928897
  0.9999243074478332  0.6249928754312261  0.8749857375297653
  0.0000585883466362  0.8750185511129444  0.1249814488870558
  0.0001261592203482  0.8750144312424720  0.3749754230499035
  0.0000344144991141  0.8749145679369480  0.6249996763370830
  0.9999778349906049  0.8749580193725855  0.8749893474360289
  0.2499848125118799  0.1249859668424954  0.1251201614528862
  0.2498801315679568  0.1248445996783649  0.3750069939075513
  0.2497931116972912  0.1246759181741436  0.6251680346805145
  0.2498906890184904  0.1248466442541766  0.8751533557458233
  0.2500676187149544  0.3750255718397369  0.1251979986133998
  0.2500181860989663  0.3744563843265795  0.3752438731724160
  0.2491967805152535  0.3746327089528345  0.6253672910471726
  0.2497931116972912  0.3748319653194853  0.8753240818258565
  0.2501205652181100  0.6249794497650363  0.1251143874699280
  0.2504842593928445  0.6247520566320892  0.3752479433679106
  0.2500181860989663  0.6247561268275841  0.6255436156734204
  0.2498801315679568  0.6249930060924487  0.8751554003216350
  0.2500502367762826  0.8749636285092067  0.1250363714907933
  0.2501205652181100  0.8748856125300721  0.3750205502349637
  0.2500676187149544  0.8748020013866001  0.6249744281602631
  0.2499848125118799  0.8748798385471138  0.8750140331575047
  0.4999911864773977  0.1251628252978916  0.1251897736801629
  0.4999407887819034  0.1251884018142702  0.3751982259240770
  0.4998588274560547  0.1248221317137091  0.6251020578694277
  0.4999859216511692  0.1247571168260484  0.8752428831739517
  0.5000457415998847  0.3750922437373146  0.1250890812173661
  0.4998525634978130  0.3767705833915567  0.3761006877781756
  0.5017296763336038  0.3694800885263980  0.6305199114736021
  0.4998588274560547  0.3748979421305723  0.8751778682862910
  0.5001215352743181  0.6251079352731803  0.1248767922460376
  0.5007854178753398  0.6262411487982431  0.3737588512017568
  0.4998525634978130  0.6238993122218247  0.6232294166084436
  0.4999407887819034  0.6248017740759232  0.8748115981857297
  0.5000554680690465  0.8751294486978913  0.1248705513021086
  0.5001215352743181  0.8751232077539624  0.3748920647268195
  0.5000457415998847  0.8749109187826341  0.6249077562626854
  0.4999911864773977  0.8748102263198372  0.8748371747021083
  0.7499878426574961  0.1250901605532962  0.1250276682370995
  0.7498770376771929  0.1252263517637504  0.3750335744782985
  0.7497937286356360  0.1251601152766290  0.6250767846794972
  0.7499592221922012  0.1249728213946996  0.8750271786053005
  0.7500044145344409  0.3750929268834221  0.1249845298466897
  0.7499183751141022  0.3753519226237079  0.3749270566167171
  0.7497368523832424  0.3751726225922531  0.6248273774077466
  0.7497937286356360  0.3749232153205028  0.8748398847233712
  0.7501693703032748  0.6251273431266818  0.1247460281304297
  0.7505575530591176  0.6254090804252367  0.3745909195747633
  0.7499183751141022  0.6250729433832828  0.6246480773762919
  0.7498770376771929  0.6249664255217015  0.8747736482362497
  0.7500740577104539  0.8751135190721084  0.1248864809278917
  0.7501693703032748  0.8752539718695704  0.3748726568733181
  0.7500044145344409  0.8750154701533104  0.6249070731165777
  0.7499878426574961  0.8749723317629006  0.8749098394467038
  0.1874612079249174  0.1874612079249174  0.0626470479656200
  0.1875049811014625  0.1875049811014625  0.3126206357411895
  0.1871016623916845  0.1871016623916845  0.5628217433176453
  0.1873045411213608  0.1873045411213608  0.8126954588786394
  0.1875237483299667  0.4374804257740722  0.0626625230448455
  0.1878583240179786  0.4376692224778614  0.3129290658746307
  0.1873869233277183  0.4372497421197458  0.5627502578802545
  0.1871016623916845  0.4371782566823547  0.8128983376083155
  0.1875621887228678  0.6874589748245816  0.0625561813359497
  0.1877831135908465  0.6873744423527869  0.3126255576472132
  0.1878583240179786  0.6870709341253695  0.5623307775221386
  0.1875049811014625  0.6873793642588109  0.8124950188985447
  0.1875162361340503  0.9374536829864549  0.0625463170135451
  0.1875621887228678  0.9374438186640500  0.3125410251754183
  0.1875237483299667  0.9373374769551545  0.5625195742259279
  0.1874612079249174  0.9373529520343798  0.8125387920750825
  0.4374804257740722  0.1875237483299667  0.0626625230448455
  0.4376692224778614  0.1878583240179786  0.3129290658746307
  0.4372497421197458  0.1873869233277183  0.5627502578802545
  0.4371782566823547  0.1871016623916845  0.8128983376083155
  0.4375156909542020  0.4375156909542020  0.0625738858815881
  0.4377684560969874  0.4377684560969874  0.3127446571570817
  0.4372497421197458  0.4372497421197458  0.8126130766722819
  0.4375590873241165  0.6875103798241131  0.0624225438135426
  0.4378904733904641  0.6880544096802781  0.3119455903197222
  0.4377684560969874  0.6872553428429186  0.5622315439030127
  0.4376692224778614  0.6870709341253695  0.8121416759820215
  0.4375341852788294  0.9375233744765638  0.0624766255234365
  0.4375590873241165  0.9375774561864573  0.3124896201758871
  0.4375156909542020  0.9374261141184118  0.5624843090457979
  0.4374804257740722  0.9373374769551545  0.8124762516700331
  0.6874589748245816  0.1875621887228678  0.0625561813359497
  0.6873744423527869  0.1877831135908465  0.3126255576472132
  0.6870709341253695  0.1878583240179786  0.5623307775221386
  0.6873793642588109  0.1875049811014625  0.8124950188985447
  0.6875103798241131  0.4375590873241165  0.0624225438135426
  0.6880544096802781  0.4378904733904641  0.3119455903197222
  0.6872553428429186  0.4377684560969874  0.5622315439030127
  0.6870709341253695  0.4376692224778614  0.8121416759820215
  0.6875852750237131  0.6875852750237131  0.0622830036042154
  0.6878391944147032  0.6878391944147032  0.3121608055852969
  0.6880544096802781  0.6880544096802781  0.5621095266095361
  0.6873744423527869  0.6873744423527869  0.8122168864091536
  0.6875199944887728  0.9375777656613963  0.0624222343386036
  0.6875852750237131  0.9377169963957848  0.3124147249762866
  0.6875103798241131  0.9375774561864573  0.5624409126758838
  0.6874589748245816  0.9374438186640500  0.8124378112771321
  0.9374536829864549  0.1875162361340503  0.0625463170135451
  0.9374438186640500  0.1875621887228678  0.3125410251754183
  0.9373374769551545  0.1875237483299667  0.5625195742259279
  0.9373529520343798  0.1874612079249174  0.8125387920750825
  0.9375233744765638  0.4375341852788294  0.0624766255234365
  0.9375774561864573  0.4375590873241165  0.3124896201758871
  0.9374261141184118  0.4375156909542020  0.5624843090457979
  0.9373374769551545  0.4374804257740722  0.8124762516700331
  0.9375777656613963  0.6875199944887728  0.0624222343386036
  0.9377169963957848  0.6875852750237131  0.3124147249762866
  0.9375774561864573  0.6875103798241131  0.5624409126758838
  0.9374438186640500  0.6874589748245816  0.8124378112771321
  0.9375192870433783  0.9375192870433783  0.0624807129566217
  0.9375777656613963  0.9375777656613963  0.3124800055112272
  0.9375233744765638  0.9375233744765638  0.5624658147211706
  0.9374536829864549  0.9374536829864549  0.8124837638659497
  0.1875164543069511  0.0624859142351257  0.1875777171457407
  0.1874415538021565  0.0623873496994676  0.4375871644443255
  0.1873551219288615  0.0622700206932493  0.6876261323180294
  0.1874313379225026  0.0623919434164754  0.9376080565835249
  0.1875563249630120  0.3125384304375915  0.1876646528994220
  0.1874465545087804  0.3123973175317857  0.4377945788907906
  0.1871217935364859  0.3121935417156386  0.6878064582843615
  0.1873551219288615  0.3123738676819707  0.9377299793067505
  0.1877741603492106  0.5625002825032066  0.1877669695625998
  0.1878332081124518  0.5622962053296457  0.4377037946703544
  0.1874465545087804  0.5622054211092095  0.6876026824682143
  0.1874415538021565  0.5624128355556743  0.9376126503005325
  0.1875908582611813  0.8124607409175357  0.1875392590824644
  0.1877741603492106  0.8122330304374002  0.4374997174967936
  0.1875563249630120  0.8123353471005781  0.6874615695624084
  0.1875164543069511  0.8124222828542593  0.9375140857648742
  0.4375499873204448  0.0626391512985861  0.1876406338338503
  0.4374674473263455  0.0625162046053705  0.4375783976058081
  0.4373935240589107  0.0623236482840310  0.6876057806305271
  0.4374381928487415  0.0623612728699248  0.9376387271300751
  0.4375438743225026  0.3126651883074939  0.1877318661089669
  0.4380495715828800  0.3142988773525809  0.4397955196455398
  0.4364734003311442  0.3123347829377440  0.6876652170622557
  0.4373935240589107  0.3123942193694728  0.9376763517159691
  0.4376554751136552  0.5625970501255260  0.1874538576944497
  0.4410005933853165  0.5629872458245181  0.4370127541754820
  0.4380495715828800  0.5602044803544604  0.6857011226474191
  0.4374674473263455  0.5624216023941917  0.9374837953946294
  0.4376126005038747  0.8126920183812747  0.1873079816187254
  0.4376554751136552  0.8125461423055501  0.4374029498744739
  0.4375438743225026  0.8122681338910333  0.6873348116925058
  0.4375499873204448  0.8123593661661498  0.9373608487014139
  0.6874999572356868  0.0626576498686788  0.1875208945806467
  0.6874273441035442  0.0626885412644784  0.4375027172716778
  0.6874130660943489  0.0625093415742977  0.6874704903672774
  0.6874519523402579  0.0625004099124799  0.9374995900875199
  0.6874527144290554  0.3126211954842255  0.1875705620561688
  0.6867827483533568  0.3132831355765069  0.4375553080179639
  0.6871316065156789  0.3126626157585429  0.6873373842414571
  0.6874130660943489  0.3125295096327225  0.9374906584257023
  0.6877756374597803  0.5627055916762712  0.1871572526693008
  0.6883039074826784  0.5631247243056844  0.4368752756943156
  0.6867827483533568  0.5624446919820362  0.6867168644234930
  0.6874273441035442  0.5624972827283219  0.9373114587355216
  0.6876258240923420  0.8126822734070520  0.1873177265929479
  0.6877756374597803  0.8128427473306993  0.4372944083237287
  0.6874527144290554  0.8124294379438314  0.6873788045157748
  0.6874999572356868  0.8124791054193535  0.9373423501313211
  0.9375044215397392  0.0625486896394704  0.1875156585513752
  0.9374281991835869  0.0625770015769276  0.4375075215842012
  0.9373862482132354  0.0624622897534021  0.6875106388091308
  0.9374427772255900  0.0624771389016634  0.9375228610983364
  0.9374951992093152  0.3125450687954480  0.1875481803463188
  0.9374259498026933  0.3125396245783133  0.4375194400033323
  0.9373097150271368  0.3124900552013085  0.6875099447986914
  0.9373862482132354  0.3124893611908691  0.9375377102465980
  0.9376730337258642  0.5625564849626465  0.1874211317935475
  0.9376078324297101  0.5625505468331921  0.4374494531668079
  0.9374259498026933  0.5624805599966678  0.6874603754216865
  0.9374281991835869  0.5624924784157986  0.9374229984230724
  0.9376146024452330  0.8125585030697350  0.1874414969302653
  0.9376730337258642  0.8125788682064524  0.4374435150373536
  0.9374951992093152  0.8124518196536811  0.6874549312045523
  0.9375044215397392  0.8124843414486247  0.9374513103605299
  0.0624859142351257  0.1875164543069511  0.1875777171457407
  0.0623873496994676  0.1874415538021565  0.4375871644443255
  0.0622700206932493  0.1873551219288615  0.6876261323180294
  0.0623919434164754  0.1874313379225026  0.9376080565835249
  0.0626391512985861  0.4375499873204448  0.1876406338338503
  0.0625162046053705  0.4374674473263455  0.4375783976058081
  0.0623236482840310  0.4373935240589107  0.6876057806305271
  0.0623612728699248  0.4374381928487415  0.9376387271300751
  0.0626576498686788  0.6874999572356868  0.1875208945806467
  0.0626885412644784  0.6874273441035442  0.4375027172716778
  0.0625093415742977  0.6874130660943489  0.6874704903672774
  0.0625004099124799  0.6874519523402579  0.9374995900875199
  0.0625486896394704  0.9375044215397392  0.1875156585513752
  0.0625770015769276  0.9374281991835869  0.4375075215842012
  0.0624622897534021  0.9373862482132354  0.6875106388091308
  0.0624771389016634  0.9374427772255900  0.9375228610983364
  0.3125384304375915  0.1875563249630120  0.1876646528994220
  0.3123973175317857  0.1874465545087804  0.4377945788907906
  0.3121935417156386  0.1871217935364859  0.6878064582843615
  0.3123738676819707  0.1873551219288615  0.9377299793067505
  0.3126651883074939  0.4375438743225026  0.1877318661089669
  0.3142988773525809  0.4380495715828800  0.4397955196455398
  0.3123347829377440  0.4364734003311442  0.6876652170622557
  0.3123942193694728  0.4373935240589107  0.9376763517159691
  0.3126211954842255  0.6874527144290554  0.1875705620561688
  0.3132831355765069  0.6867827483533568  0.4375553080179639
  0.3126626157585429  0.6871316065156789  0.6873373842414571
  0.3125295096327225  0.6874130660943489  0.9374906584257023
  0.3125450687954480  0.9374951992093152  0.1875481803463188
  0.3125396245783133  0.9374259498026933  0.4375194400033323
  0.3124900552013085  0.9373097150271368  0.6875099447986914
  0.3124893611908691  0.9373862482132354  0.9375377102465980
  0.5625002825032066  0.1877741603492106  0.1877669695625998
  0.5622962053296457  0.1878332081124518  0.4377037946703544
  0.5622054211092095  0.1874465545087804  0.6876026824682143
  0.5624128355556743  0.1874415538021565  0.9376126503005325
  0.5625970501255260  0.4376554751136552  0.1874538576944497
  0.5629872458245181  0.4410005933853165  0.4370127541754820
  0.5602044803544604  0.4380495715828800  0.6857011226474191
  0.5624216023941917  0.4374674473263455  0.9374837953946294