Cubic diamond                           
   1.00000000000000     
     7.0886574160000002    0.0000000000000000    0.0000000000000000
     0.0000000000000000    7.0886574160000002    0.0000000000000000
     0.0000000000000000    0.0000000000000000    7.0886574160000002
   C    N 
    62     1
Direct
  0.9995127845865457  0.9995127845865457  0.0004872154134542
  0.9982616866192903  0.9982616866192903  0.4998822034777257
  0.9982616866192903  0.5001177965222744  0.0017383133807095
  0.0004017949506843  0.4994468281888987  0.5005531718111011
  0.5001177965222744  0.9982616866192903  0.0017383133807095
  0.4994468281888987  0.0004017949506843  0.5005531718111011
  0.4994468281888987  0.4994468281888987  0.9995982050493157
  0.1248653281667096  0.1248653281667096  0.1254276770160436
  0.1253439635644681  0.1253439635644681  0.6258620812639903
  0.1257881004146053  0.6245193840049110  0.1260012400134712
  0.1286983995307489  0.6210034597640811  0.6237067303003276
  0.6245193840049110  0.1257881004146053  0.1260012400134712
  0.6210034597640811  0.1286983995307489  0.6237067303003276
  0.6254865439782936  0.6254865439782936  0.1234714948189638
  0.6256881132723645  0.6256881132723645  0.6183963386182907
  0.2499752955781904  0.2499752955781904  0.0009594856364295
  0.2381025164528368  0.2381025164528368  0.4937257314212425
  0.2484225208927684  0.7499089591970894  0.0007927392480963
  0.2531739682722662  0.7479675020723268  0.5007673950739131
  0.7499089591970894  0.2484225208927684  0.0007927392480963
  0.7479675020723268  0.2531739682722662  0.5007673950739131
  0.7496261465010621  0.7496261465010621  0.9994187159664549
  0.7515873274554135  0.7515873274554135  0.4988900846313626
  0.2484225208927684  0.9992072607519037  0.2500910408029104
  0.2499752955781904  0.9990405143635704  0.7500247044218097
  0.2531739682722662  0.4992326049260868  0.2520324979276729
  0.2381025164528368  0.5062742685787576  0.7618974835471632
  0.7496261465010621  0.0005812840335451  0.2503738534989380
  0.7499089591970894  0.9992072607519037  0.7515774791072315
  0.7515873274554135  0.5011099153686375  0.2484126725445865
  0.7479675020723268  0.4992326049260868  0.7468260317277338
  0.9992072607519037  0.2484225208927684  0.2500910408029104
  0.9990405143635704  0.2499752955781904  0.7500247044218097
  0.0005812840335451  0.7496261465010621  0.2503738534989380
  0.9992072607519037  0.7499089591970894  0.7515774791072315
  0.4992326049260868  0.2531739682722662  0.2520324979276729
  0.5062742685787576  0.2381025164528368  0.7618974835471632
  0.5011099153686375  0.7515873274554135  0.2484126725445865
  0.4992326049260868  0.7479675020723268  0.7468260317277338
  0.3750811813507228  0.3750811813507228  0.1251743893123125
  0.3755823924203633  0.8752985676850075  0.1247014323149925
  0.3750811813507228  0.8748256106876876  0.6249188186492772
  0.8752985676850075  0.3755823924203633  0.1247014323149925
  0.8748256106876876  0.3750811813507228  0.6249188186492772
  0.8750440768964400  0.8750440768964400  0.1249559231035599
  0.8752985676850075  0.8752985676850075  0.6244176075796370
  0.3762932696996724  0.1286983995307489  0.3789965402359187
  0.3741379187360098  0.1253439635644681  0.8746560364355319
  0.3816036613817094  0.6256881132723645  0.3743118867276354
  0.3762932696996724  0.6210034597640811  0.8713016004692510
  0.8739987599865359  0.1257881004146053  0.3754806159950890
  0.8745723229839564  0.1248653281667096  0.8751346718332904
  0.8765285051810360  0.6254865439782936  0.3745134560217063
  0.8739987599865359  0.6245193840049110  0.8742118995853947
  0.1286983995307489  0.3762932696996724  0.3789965402359187
  0.1253439635644681  0.3741379187360098  0.8746560364355319
  0.1257881004146053  0.8739987599865359  0.3754806159950890
  0.1248653281667096  0.8745723229839564  0.8751346718332904
  0.6256881132723645  0.3816036613817094  0.3743118867276354
  0.6210034597640811  0.3762932696996724  0.8713016004692510
  0.6254865439782936  0.8765285051810360  0.3745134560217063
  0.6245193840049110  0.8739987599865359  0.8742118995853947
  0.5117117766563228  0.5117117766563228  0.4882882233436771
 
  0.00000000E+00  0.00000000E+00  0.00000000E+00
  0.00000000E+00  0.00000000E+00  0.00000000E+00
  0.00000000E+00  0.00000000E+00  0.00000000E+00
  0.00000000E+00  0.00000000E+00  0.00000000E+00
  0.00000000E+00  0.00000000E+00  0.00000000E+00
  0.00000000E+00  0.00000000E+00  0.00000000E+00
  0.00000000E+00  0.00000000E+00  0.00000000E+00
  0.00000000E+00  0.00000000E+00  0.00000000E+00
  0.00000000E+00  0.00000000E+00  0.00000000E+00
  0.00000000E+00  0.00000000E+00  0.00000000E+00
  0.00000000E+00  0.00000000E+00  0.00000000E+00
  0.00000000E+00  0.00000000E+00  0.00000000E+00
  0.00000000E+00  0.00000000E+00  0.00000000E+00
  0.00000000E+00  0.00000000E+00  0.00000000E+00
  0.00000000E+00  0.00000000E+00  0.00000000E+00
  0.00000000E+00  0.00000000E+00  0.00000000E+00
  0.00000000E+00  0.00000000E+00  0.00000000E+00
  0.00000000E+00  0.00000000E+00  0.00000000E+00
  0.00000000E+00  0.00000000E+00  0.00000000E+00
  0.00000000E+00  0.00000000E+00  0.00000000E+00
  0.00000000E+00  0.00000000E+00  0.00000000E+00
  0.00000000E+00  0.00000000E+00  0.00000000E+00
  0.00000000E+00  0.00000000E+00  0.00000000E+00
  0.00000000E+00  0.00000000E+00  0.00000000E+00
  0.00000000E+00  0.00000000E+00  0.00000000E+00
  0.00000000E+00  0.00000000E+00  0.00000000E+00
  0.00000000E+00  0.00000000E+00  0.00000000E+00
  0.00000000E+00  0.00000000E+00  0.00000000E+00
  0.00000000E+00  0.00000000E+00  0.00000000E+00
  0.00000000E+00  0.00000000E+00  0.00000000E+00
  0.00000000E+00  0.00000000E+00  0.00000000E+00
  0.00000000E+00  0.00000000E+00  0.00000000E+00
  0.00000000E+00  0.00000000E+00  0.00000000E+00
  0.00000000E+00  0.00000000E+00  0.00000000E+00
  0.00000000E+00  0.00000000E+00  0.00000000E+00
  0.00000000E+00  0.00000000E+00  0.00000000E+00
  0.00000000E+00  0.00000000E+00  0.00000000E+00
  0.00000000E+00  0.00000000E+00  0.00000000E+00
  0.00000000E+00  0.00000000E+00  0.00000000E+00
  0.00000000E+00  0.00000000E+00  0.00000000E+00
  0.00000000E+00  0.00000000E+00  0.00000000E+00
  0.00000000E+00  0.00000000E+00  0.00000000E+00
  0.00000000E+00  0.00000000E+00  0.00000000E+00
  0.00000000E+00  0.00000000E+00  0.00000000E+00
  0.00000000E+00  0.00000000E+00  0.00000000E+00
  0.00000000E+00  0.00000000E+00  0.00000000E+00
  0.00000000E+00  0.00000000E+00  0.00000000E+00
  0.00000000E+00  0.00000000E+00  0.00000000E+00
  0.00000000E+00  0.00000000E+00  0.00000000E+00
  0.00000000E+00  0.00000000E+00  0.00000000E+00
  0.00000000E+00  0.00000000E+00  0.00000000E+00
  0.00000000E+00  0.00000000E+00  0.00000000E+00
  0.00000000E+00  0.00000000E+00  0.00000000E+00
  0.00000000E+00  0.00000000E+00  0.00000000E+00
  0.00000000E+00  0.00000000E+00  0.00000000E+00
  0.00000000E+00  0.00000000E+00  0.00000000E+00
  0.00000000E+00  0.00000000E+00  0.00000000E+00
  0.00000000E+00  0.00000000E+00  0.00000000E+00
  0.00000000E+00  0.00000000E+00  0.00000000E+00
  0.00000000E+00  0.00000000E+00  0.00000000E+00
  0.00000000E+00  0.00000000E+00  0.00000000E+00
  0.00000000E+00  0.00000000E+00  0.00000000E+00
  0.00000000E+00  0.00000000E+00  0.00000000E+00
